18
Coordinates from ORCA-job sd_inp/doublemontecarlogen3D397
  C   1.36322311469441     -0.21458138499376      0.07545695096956
  C   0.47609533281518     -1.29040100009542      0.06347668617684
  C   -0.88187540024289     -1.02942133293540     -0.11276031768175
  C   -1.38411923929398      0.26374706346620     -0.26990978624604
  C   -0.48730212389989      1.32814023168815     -0.25185095363434
  C   0.88105438567067      1.08673337909665     -0.08248584959007
  C   1.83814930816842      2.25417010924404     -0.13123315461137
  F   2.01716643628615      2.67638895977035     -1.40194557217256
  F   1.36746172626954      3.30519521822694      0.57264593787518
  F   3.05059583084007      1.93505396969589      0.36416978467376
  S   -2.02053499110640     -2.41220777000076     -0.17262345355824
  O   -3.20548602093708     -2.02751099421291     -0.92856343497321
  O   -1.27295669514317     -3.63081730813800     -0.45440659595424
  Cl  -2.62689710476449     -2.53053202006184      1.86678214520236
  H   2.42533340263624     -0.38586460716520      0.20789900601361
  H   0.82770568193284     -2.30968336079765      0.17674154054696
  H   -2.44670597060053      0.42679189197177     -0.41126515926135
  H   -0.84852767332507      2.34445895524096     -0.36822777377510
