12
Coordinates from ORCA-job leia_inp/doublemontecarlogen3D210
  C   0.32643125744354      0.90886507128045     -0.59116618914339
  C   0.77403154733193     -0.39952253185596      0.14050174466075
  C   -0.64961146968821      0.03677841592385      0.07687991105404
  F   -1.25577561046570      0.49280481279138      1.22056514781395
  F   -1.52899132313684     -0.68909673559602     -0.63352524330315
  C   1.65779943395090     -0.31551565373536      1.35993395662687
  O   2.71488800849619     -0.89315839960189      1.41079615362085
  O   1.24265722704539      0.47522719087660      2.37701643274180
  H   0.37298056618241      0.90587448698375     -1.67473953684765
  H   0.57899202004882      1.84745591253012     -0.10706341535962
  H   1.04253675158185     -1.22350279066877     -0.51165648432093
  H   0.30961159120971      0.71840022107185      2.26607752245648
