14
Coordinates from ORCA-job sli_prashanth_inp/doublemontecarlogen3D486
  C   -1.23345510760675      1.23359719266241      0.04767055291331
  C   0.15551890074364      1.21621394345924      0.05219240669197
  C   0.80627003434262     -0.01747177814956      0.00508915072693
  C   0.11725343071404     -1.22629549564445     -0.04591155690509
  C   -1.27525693689158     -1.19200920148097     -0.04993721722087
  C   -1.95889215863185      0.03127894788363     -0.00346821187052
  C   -3.43746970759871      0.05495891514584     -0.00842260712951
  O   -4.11280718403198      1.06657765477439      0.03084574315197
  F   2.15119556963093     -0.03843683615374      0.00906687993355
  H   -1.78370618851418      2.16861696606316      0.08318517655053
  H   0.74255192892910      2.12764076298781      0.09102066203783
  H   0.67151893335083     -2.15790600825496     -0.08118769706654
  H   -1.83890485058381     -2.12134153539153     -0.08950854899948
  H   -3.91552666385229     -0.94972352790126     -0.05218473281409
