27
Coordinates from ORCA-job sli_testing_inp/doublemontecarlogen3D77
  O   4.01068180211711      8.94124279885940     -2.22225200065200
  C   4.87676389615265      9.11906642867439     -1.20366381898412
  O   5.65331354732866     10.04476402729527     -1.16005837131934
  C   4.78800751679511      8.06976873288416     -0.14582412355001
  C   5.55914779925937      8.02942612879205      0.98139406477246
  S   5.13864198043757      6.64614192999809      1.92325333783398
  C   3.93429405637963      6.20598313153950      0.71194840479756
  C   3.03885539512711      5.00534520209888      0.86499103481417
  C   1.87545848774449      5.23126500647958      1.82292745847105
  C   1.62497965882387      4.34118327079055      2.87424652602920
  C   0.54539250761499      4.54300448227665      3.73639362435560
  C   -0.29694601564794      5.64007230040197      3.56177675232743
  C   -0.04921228981853      6.53304474867064      2.51616408920849
  C   1.02831840637430      6.33086278264870      1.65220242426854
  C   -0.96108984747482      7.70680190215614      2.27243732574221
  F   -1.78820748775909      7.47955313906440      1.22551788955687
  F   -1.73652438187776      7.97985715441519      3.34370906590245
  F   -0.26172497254014      8.82591419536058      1.97837261033883
  N   3.87746590345679      7.04101589751853     -0.28676932420575
  H   3.49500025441932      8.13444901840230     -2.03715045587881
  H   6.32825757814062      8.72918407532305      1.27462739557768
  H   3.62460721684290      4.14091503490642      1.19436834551172
  H   2.65985302802949      4.77513378665859     -0.13704412899502
  H   2.27762936456455      3.48372753295471      3.01916651794161
  H   0.36392810151504      3.84596548837025      4.54909789288944
  H   -1.13355877027724      5.80932353373760      4.23028976491973
  H   1.21575726427190      7.03840826972227      0.85009769832600
