22
Coordinates from ORCA-job sd_inp/doublemontecarlogen3D413
  C   1.02975067901714     -0.33726578813179     -0.35210203812326
  C   0.23514766385437     -1.48327431773673     -0.37566261368419
  C   -1.05036428997782     -1.44857810512769      0.16709521379606
  C   -1.54587849799252     -0.26244101826326      0.71921562843013
  C   -0.74852408453119      0.87803997565356      0.74399495588943
  C   0.55203653284059      0.84527893927773      0.22036579114237
  C   1.42572829690520      2.08840853967632      0.25509623505608
  C   1.13137715392608      2.98188927248928     -0.97105922711889
  O   1.45359646822188      2.65720829698231     -2.08571558857197
  O   0.46828633525714      4.11515275173043     -0.69156417078463
  O   1.20385141791805      2.88848463722525      1.41655210010120
  C   -1.89940809483892     -2.69080059600451      0.23468795988778
  F   -3.14394781213241     -2.47204502906601     -0.24627780169924
  F   -1.36585551605725     -3.71561608490921     -0.46208421793651
  F   -2.04732659530134     -3.10953056509762      1.51433226985425
  H   2.02903069923376     -0.36463256858218     -0.77678753700881
  H   0.61344047224746     -2.40199344629171     -0.80968868790672
  H   -2.55375413187210     -0.23232466053584      1.12129019845076
  H   -1.13453895972680      1.79835074659055      1.17180325950282
  H   2.48054119583600      1.79607256698566      0.17449535675682
  H   0.38864944485289      4.17250029438971      0.27930376401922
  H   1.15636162231981      2.31511615874574      2.19292914994729
