15
Coordinates from ORCA-job test_6_sl_inp/doublemontecarlogen3D335
  C   -1.25847679353305     -1.22419464199280     -0.00099507495285
  C   -1.96375374992995     -0.01789180816822      0.00596996752761
  C   -1.26262661779208      1.18918618538186      0.00835367360431
  C   0.13633419323652      1.20322361293706      0.00393521036743
  C   0.80771791118414     -0.01112362320741     -0.00299262717023
  C   0.13568181696809     -1.23088780958617     -0.00564871692386
  F   2.15508458866443     -0.00922921439217     -0.00734678207646
  C   -1.98854619969697      2.51025427889355      0.01451242171084
  F   -1.66884167525183      3.25380642776845     -1.06964350799735
  F   -3.32915599194246      2.35728268803166      0.01901517434581
  F   -1.66110866198681      3.24872722643663      1.09978808846331
  H   -1.79939356818714     -2.16559403286227     -0.00286870457252
  H   -3.04725049776906     -0.01233016775927      0.00956942639244
  H   0.69721840903601      2.13129631014325      0.00562669646767
  H   0.70447683700018     -2.15457543162414     -0.01128524518616
