30
Coordinates from ORCA-job sd_inp/doublemontecarlogen3D42
  B   -0.82954115942578     -1.03557815673160      0.46627803209427
  F   -0.75555898728636     -1.91303503353232      1.57315342249598
  F   -2.11003721059584     -0.92922022362025     -0.01936846118074
  F   0.06140565599325     -1.52762620026312     -0.53998114524400
  F   -0.32722813487831      0.23519499108107      0.87218396092366
  C   7.57630803453569      4.02932257653934     -0.22450937879374
  C   7.47201440754840      2.60647953197191      0.33524597379604
  C   6.01875264935061      2.13069433758436      0.46878273452820
  C   5.92984573519733      0.70452587071698      1.02486754367491
  N   4.54537147509826      0.22237562738529      1.12972222771460
  C   3.74102445741681     -0.18330880040539      0.07729885290739
  C   2.51438236442746     -0.49959744100957      0.58679863680396
  N   2.59034320111326     -0.28357304059810      1.95188694510007
  C   3.81664217466461      0.15328997742679      2.25428795290276
  C   1.49173386319668     -0.45475817013008      2.92103775640019
  H   7.12469883971681      4.09763837285174     -1.22029159992519
  H   7.06435342662406      4.74958922209316      0.42309317696866
  H   8.62137474415319      4.34181096197328     -0.31013839997114
  H   7.96290838387993      2.55991856924756      1.31689712122905
  H   8.02258099675281      1.91426402996350     -0.31614733107236
  H   5.52385209352435      2.16796154444692     -0.50971917099375
  H   5.45945033026906      2.80742239193400      1.12732047813011
  H   6.37255934653861      0.64534531319278      2.02356272917252
  H   6.47299510182036      0.00094779464407      0.38604827593540
  H   4.10676978327324     -0.22043880750953     -0.93638251155623
  H   1.60789323941002     -0.86553546010634      0.10082143942480
  H   4.16756809788295      0.40491813305412      3.24272939295562
  H   0.89675759993355     -1.32452889933234      2.63858394764535
  H   0.83052797188930      0.40854016855636      2.85805777391652
  H   1.92924151797535     -0.56393918142466      3.91490962401701
