19
Coordinates from ORCA-job leia_inp/doublemontecarlogen3D190
  C   -3.01614492244703      1.75664163042590      0.62171834393464
  C   -2.38490630077190      3.00303129607628      0.60960293636587
  C   -1.03866696680120      3.09852684223330      0.25245183409998
  C   -0.34652547230256      1.94554194952674     -0.08747436429287
  C   -0.93860845574030      0.66971042017759     -0.09244281230921
  C   -2.29908221173209      0.61504967700431      0.27641005313657
  C   -0.25806299793282     -0.57175956213313     -0.44699685688387
  C   1.01267793433123     -0.76893530939020     -0.84766283559119
  C   1.46371600294418     -2.15110258999607     -1.15875885026155
  O   0.77405170126587     -3.14204925354405     -1.06360591276878
  O   2.75509589189342     -2.26499981156709     -1.57963062386817
  F   0.95733539978801      2.07637734987557     -0.42622418057245
  H   -4.06238816577839      1.67585652865376      0.89922157087012
  H   -2.93423554552237      3.90061370489897      0.87714608781979
  H   -0.51570141324173      4.04872282788753      0.23245808481245
  H   -2.78859639469133     -0.35496491598041      0.28524435228986
  H   -0.87112675507771     -1.46997216639862     -0.38012396434316
  H   1.71067481516866      0.05416721033891     -0.95157503330406
  H   3.17544385664806     -1.39414582808929     -1.60818782913397
