17
Coordinates from ORCA-job sli_prashanth_inp/doublemontecarlogen3D542
  C   -1.42466350738764     -0.10150711205468     -0.03981381620530
  C   -0.82336664139504      1.14933523777778     -0.14124683752602
  C   0.56211034046913      1.25099406806093     -0.17017225755292
  C   1.36337705003163      0.11161452417102     -0.09273699681936
  C   0.75094536215076     -1.14130048050618      0.00353327315261
  C   -0.64608077372628     -1.27022622032128      0.03285807630516
  N   -1.24176815199722     -2.52180388547081      0.20851421249604
  C   2.86661289262267      0.19642664391271     -0.17265252333431
  F   3.28481871237505      0.33332823802476     -1.45274666832517
  F   3.36574519686348      1.23443691746398      0.52152284525941
  F   3.45154359938773     -0.92491467263469      0.31322127354552
  F   1.12200579798806      2.47197974596222     -0.29727477764179
  H   -2.50898449480579     -0.17420812883104     -0.01313966967635
  H   -1.41704336832691      2.05501517242257     -0.20624846091250
  H   1.37635213689988     -2.02448265167672      0.08048540483787
  H   -0.69908695283483     -3.30774644967552     -0.12337936403833
  H   -2.20522719831466     -2.58147094662504     -0.09231371356455
