20
Coordinates from ORCA-job test_7_sl_inp/doublemontecarlogen3D360
  C   1.51238667375937     -0.00995359141556     -0.14856599120084
  C   0.68207644912064     -1.12816202332125     -0.05346543645068
  C   -0.69739199335570     -0.98523396708931      0.13934467847974
  C   -1.23220017155523      0.30314098811090      0.25077764547610
  C   -0.40032780683478      1.42108950343609      0.16344242522125
  C   0.97508592333413      1.27135954341605     -0.03986714118557
  C   -0.97192446067063      2.80102088038167      0.34890019095105
  F   -0.33316890438294      3.71575449264520     -0.41739124243315
  F   -2.28505555255069      2.85866656198339      0.03778153034578
  F   -0.85346263096210      3.22131265997410      1.63234966603059
  C   -1.59756406551511     -2.20777880576773      0.19070009564942
  N   -2.78902578025743     -1.97747170316620      1.00990978711555
  H   2.57999661783873     -0.13826547779273     -0.30229444614582
  H   1.11123624764346     -2.12487979229669     -0.13054211474542
  H   -2.29891834720670      0.41716038405168      0.40698330550801
  H   1.61155763018002      2.14694575522538     -0.11421512750174
  H   -0.98954697113744     -3.07536058229891      0.50232863622121
  H   -1.94341667234100     -2.43289163029246     -0.82804920437861
  H   -2.53146492671664     -1.90937381563070      1.99173530215631
  H   -3.42968125838995     -2.76144938015291      0.92449744088682
