18
Coordinates from ORCA-job test_1_sl_inp/doublemontecarlogen3D241
  C   -0.83878178948884     -2.51293811627866      0.02096475417871
  C   0.53664386552677     -2.34298098237273      0.18413194563881
  C   1.03649887595735     -1.05695755545634      0.31528398081944
  C   0.24229321922092      0.09045491839630      0.29442139632211
  C   -1.13478975465720     -0.09588821639753      0.12547372672800
  C   -1.64834508500804     -1.38212668480306     -0.00744681874820
  F   -2.97701988192928     -1.53549329810865     -0.16505074049731
  C   0.84871658902763      1.47021259395222      0.44642734726766
  C   1.48444216484519      2.01446542311131     -0.84527790508954
  O   1.08370698192923      2.99931978839915     -1.41177828891674
  O   2.54751712108910      1.32237717864903     -1.31517637411630
  F   2.39082127201264     -0.89581662866226      0.46392405164949
  H   -1.27997446170022     -3.49751156308780     -0.08510809181041
  H   1.21486955864911     -3.18873311767846      0.21019333600803
  H   -1.80948765270678      0.75339081746988      0.09851146186294
  H   1.61865263760304      1.45115389383213      1.22760267575339
  H   0.08286615988943      2.18764317891692      0.74221739917341
  H   2.74442017973996      0.56338837011854     -0.74256385622347
