15
Coordinates from ORCA-job sli_prashanth_inp/doublemontecarlogen3D491
  C   0.13034725236083     -1.23989195201239     -0.01686521258765
  C   -1.26067479406829     -1.25200795034828      0.04084178262374
  C   -1.94480922148344     -0.03365750693886      0.05360476087471
  C   -1.28109319639451      1.19529942494410      0.00937839568484
  C   0.10985017487459      1.20491478236826     -0.04888262021490
  C   0.78830888836688     -0.01235975309502     -0.06255888933721
  F   2.12865360209324     -0.00193000115547     -0.11740635010310
  S   -3.72599604323054     -0.04794804941279      0.14951630347400
  O   -4.16964238270945     -1.32953117941225      0.68456111882876
  O   -4.19036920731626      1.22726062476854      0.68219206694332
  Cl  -4.26806290495541     -0.05384069058310     -1.91727892539545
  H   0.70652474865762     -2.15842801214557     -0.02308391550510
  H   -1.80860001586286     -2.18649449564804      0.08693064684536
  H   -1.84420145285716      2.12164414751197      0.03151251800612
  H   0.67061455252475      2.13246061115890     -0.07963168013744
