19
Coordinates from ORCA-job leia_inp/doublemontecarlogen3D197
  C   -2.35107210614340      0.51168137914312     -0.19287277240026
  C   -1.96359709219569     -0.82320030427698     -0.11754773370885
  C   -0.62853195447277     -1.19586262774136      0.08019150615139
  C   0.33100982680422     -0.17014857355728      0.20261801607325
  C   -0.04235407439059      1.17040164649427      0.12921528851488
  C   -1.38252928039105      1.50801977653024     -0.06792116395969
  C   -1.74686722291630      2.96988801250440     -0.13364412005968
  F   -1.06502305680962      3.60139866696817     -1.11691097913570
  F   -3.06023138621974      3.15937833999030     -0.36208291509993
  F   -1.43717904408012      3.60311367583944      1.02106533326431
  O   1.64361559152324     -0.52645868233223      0.39526257862810
  C   -0.34482338691467     -2.68009609015657      0.14394760309118
  O   -1.23430974123046     -3.49479342606166      0.03495189467114
  O   0.92842761640172     -3.07591734782472      0.32490557380332
  H   -3.38964873747585      0.77859385768858     -0.34651622908132
  H   -2.68910626073461     -1.62392781916829     -0.21036074221096
  H   0.70836729245115      1.95111729497129      0.22435801676750
  H   2.20706428596437      0.25459867518834      0.46853316405093
  H   1.52191873083015     -2.30762645419905      0.39673768064040
