17
Coordinates from ORCA-job sli_prashanth_inp/doublemontecarlogen3D538
  C   1.75849169954498      0.69553250638294      1.06511929416970
  C   2.69214368177264     -0.00833128881633      0.09341573243834
  O   2.94646046796271     -1.19635629948858      0.22832094869281
  C   3.29571335979059      0.77724711698407     -1.03081699311890
  C   3.03624448984975      2.14192191842709     -1.23543034180272
  C   3.62476000110497      2.82911770494701     -2.29592201528938
  C   4.47628404672483      2.13338096162842     -3.14853590176769
  C   4.75532169370619      0.77884961905335     -2.97649680749290
  C   4.16016466185061      0.10851776791290     -1.91470298132313
  F   5.05076207486064      2.79010106141923     -4.17390218051849
  H   1.42106306324188     -0.02784866847181      1.80812922236558
  H   0.88901196689380      1.11276483545404      0.54443757120632
  H   2.26651885523322      1.52446681077984      1.57114634166921
  H   2.37193166262271      2.68055071387104     -0.56738627117631
  H   3.43632644660377      3.88309586222806     -2.46988776402959
  H   5.42559372998701      0.27963706308915     -3.66823008691795
  H   4.34897809824967     -0.94583768540042     -1.74233776710489
