14
Coordinates from ORCA-job raina_inp/doublemontecarlogen3D232
  C   -1.37730135307722     -0.05746885249054     -0.00048999076314
  C   -0.74675514551557      1.18896267660996      0.00306027059371
  C   0.65127913874891      1.30108458951093     -0.00523589712286
  C   1.38140959075132      0.10278461441384     -0.01674507778323
  C   0.78980491553523     -1.14956064949145     -0.01831071056566
  C   -0.60096408501415     -1.20913830002674     -0.00832300628867
  F   -1.20009039320301     -2.42122277691620     -0.01064450969962
  F   2.73602016474201      0.19888075028205     -0.04121384220708
  N   1.32080826379010      2.52561718108570      0.05902367065219
  H   -2.45868860084185     -0.13845187739396      0.00515410394794
  H   -1.34714476386462      2.09467388940691      0.01827366296316
  H   1.39471246256154     -2.04834052159026     -0.03190977058072
  H   0.82824663497451      3.29790697847629     -0.36890312700606
  H   2.28444317041279      2.47605229812347     -0.24391577613998
