19
Coordinates from ORCA-job test_4_sl_inp/doublemontecarlogen3D316
  C   -1.02905584431046     -1.17606734355548      0.44959630301657
  C   0.13134489385644     -1.95028321989295      0.39633137343912
  C   1.32504583541771     -1.41583351453375     -0.09645434153494
  C   1.31723554474919     -0.08348230512478     -0.53444795952860
  C   0.16912156222200      0.69144344705294     -0.48433929314430
  C   -1.03199966571141      0.15552172422160      0.01453531052913
  C   -2.29358902362682      0.98779742477496      0.04800421295093
  C   -3.18627933691257      0.92833728037903     -1.20675563484090
  O   -4.31341057544466      1.35542445758329     -1.21197861115770
  O   -2.63580005144540      0.39692042381215     -2.32164322998136
  F   2.45967079873555      0.44283224196145     -1.00900512288483
  O   2.49789207059669     -2.09777791858419     -0.18034350449261
  H   -1.94252460531117     -1.61655363271436      0.83951275108609
  H   0.11346353647096     -2.98166915825166      0.74208019329238
  H   0.22944773863675      1.72146150440197     -0.82429251290273
  H   -2.05368305731377      2.04778501117053      0.19412307833037
  H   -2.93546939979900      0.70387314945411      0.88672863570367
  H   -1.73835093398477      0.08421356956826     -2.12185568272654
  H   2.36894051317476     -2.99452314172313      0.15567403484624
