15
Coordinates from ORCA-job srijon_inp/doublemontecarlogen3D477
  C   -1.94077849710720      0.77348755191077     -0.04921184293688
  C   -0.69655622184380      1.40611285313654     -0.06042289776832
  C   0.44084722437781      0.61753167772324     -0.01608571771358
  C   0.39779396118653     -0.78480574771352      0.03941937476627
  C   -0.84666061110382     -1.40387064817746      0.05028414907940
  C   -2.01352505003331     -0.62485921268973      0.00599403259950
  C   -3.33743778237717     -1.28836593284192      0.01839805548833
  O   -3.50859398515628     -2.49149808578938      0.06589691133756
  O   1.54040108128968     -1.51727297362606      0.08163404469014
  F   1.67609152839724      1.18191076645833     -0.02475264761793
  H   -2.85272190957051      1.36325644730155     -0.08316545009638
  H   -0.59572073529238      2.48536145349745     -0.10235991769913
  H   -0.92000612271553     -2.48531088402786      0.09296982112607
  H   -4.20255885071699     -0.58877800977189     -0.01969340314915
  H   2.29109597066573     -0.90536925539007      0.06642548789410
