27
Coordinates from ORCA-job raina_inp/doublemontecarlogen3D584
  N   0.34924770142643      0.23974606406241     -5.25449381156602
  C   0.32442172561420     -1.22945367011749     -5.14977969199771
  C   1.69567386924800     -1.91215950560813     -4.95131544368025
  C   2.60552706620766     -1.76056783158168     -6.13458164134824
  C   3.68194561122879     -0.91715908836616     -6.25256806458843
  N   4.24546861804866     -1.03746726150481     -7.51424885934361
  C   3.53803466102196     -1.97129960815814     -8.23864214502220
  C   3.72879081618008     -2.43515927623081     -9.54608123592563
  C   2.83604605652716     -3.39771963645547     -9.98652861150388
  F   2.97586638292734     -3.87915161278958    -11.24283868718889
  C   1.79203351602321     -3.90489729971200     -9.19624348572784
  C   1.61850046450825     -3.43271828257703     -7.90135616442640
  C   2.49180316073738     -2.44999089449046     -7.40102653619648
  C   -0.67062344631195     -1.63652045459330     -4.04035506758798
  O   -1.53044548300165     -0.66119371254917     -3.70942563058096
  O   -0.69456143996146     -2.73937058735842     -3.54407941286803
  H   0.62220039467361      0.52913555143690     -6.18899439009488
  H   1.04370657536551      0.62539423586417     -4.61654045229005
  H   -0.11711212768535     -1.60367985371839     -6.08269106063625
  H   1.50838706429774     -2.96794641206236     -4.72976340860966
  H   2.16854215271207     -1.49187704972224     -4.05341222653698
  H   4.11132504665692     -0.24238664704846     -5.52443982734275
  H   5.06685213468303     -0.55044809760208     -7.83323750950304
  H   4.52206484627399     -2.08007648606273    -10.19514207824284
  H   1.14171879957899     -4.66397225752381     -9.61707527551808
  H   0.81868831329624     -3.83114094448913     -7.28320700244343
  H   -1.24763248027681      0.11379061895841     -4.25112227922941
