16
Coordinates from ORCA-job ewa_inp/doublemontecarlogen3D136
  C   -1.89894124730911      1.36021414093888      0.00248174277179
  C   -0.51048316764178      1.48581243182744     -0.01119416368185
  C   0.28521766941235      0.34462997463141     -0.00983196541841
  C   -0.27851070326106     -0.94390788242531      0.00559300532031
  C   -1.67084423615074     -1.05774255244335      0.01925052754555
  C   -2.46921916677520      0.08566520196303      0.01752825286293
  C   -3.96479445345532     -0.09405436362794      0.02970557254355
  F   -4.38625344442308     -0.78338041803909     -1.05512355522669
  F   -4.36746511054397     -0.79421781281684      1.11475101524455
  F   -4.62134194154993      1.08507936667333      0.04089947761797
  O   0.45637170279587     -2.07968710949538      0.00792667650884
  Cl  2.04062524059717      0.48626125748152     -0.02749128003622
  H   -2.52833965582357      2.24172061426110      0.00163734599348
  H   -0.04258694591532      2.46409971919882     -0.02296642844375
  H   -2.10669505789257     -2.05094154401874      0.03148783428105
  H   1.39819051793627     -1.84885102410886     -0.00239405788310
