14
Coordinates from ORCA-job test_6_sl_inp/doublemontecarlogen3D340
  C   -1.20257261463780     -1.22874056580796     -0.14727510170159
  C   -1.71637192240133      0.01487878596817     -0.50728998712317
  C   -0.89341907402861      1.15122414958306     -0.41887830932277
  C   0.43183217030656      1.03960353646139      0.02449703883898
  C   0.90423953694563     -0.21854369661626      0.37394429492792
  C   0.11459324984879     -1.36158130906996      0.29848983452298
  F   2.17665399291970     -0.33163607722398      0.80178603321692
  N   -1.37512897376795      2.40088113109426     -0.76620561950055
  C   -2.25692544747838      3.11652964283910     -1.14807647876627
  S   -3.34866717500982      4.15490586407562     -1.64480204454835
  H   -1.83602262082037     -2.10798428949651     -0.21424817944553
  H   -2.73908042487531      0.11989424378280     -0.85287822959044
  H   1.07269529970332      1.91030221597213      0.09505019235795
  H   0.53078400329559     -2.32151363156186      0.58296655613394
