18
Coordinates from ORCA-job test_6_sl_inp/doublemontecarlogen3D343
  C   -1.02329602227209     -1.85720264976185      0.59953736640628
  C   -1.50501739897529     -0.55092472065070      0.50763813184481
  C   -0.70227878873393      0.47086775252781     -0.02292185379859
  C   0.59250691789071      0.15512150529571     -0.46406004066676
  C   1.04898566177828     -1.15631892223372     -0.36334422482499
  C   0.26409254507663     -2.17581032906728      0.16172060049958
  F   2.29666608189176     -1.43901540425608     -0.78630562848612
  C   -1.23549854646216      1.87939987092194     -0.16187786832775
  C   -1.98942025010167      2.18053943145188     -1.47013916086016
  O   -2.80567307511233      3.06286284446097     -1.55668651432430
  O   -1.65588586919479      1.43105654481620     -2.54640130147704
  H   -1.65432482596197     -2.63704218018148      1.01550157835254
  H   -2.50936557020054     -0.31904952337944      0.85087075811599
  H   1.25842090263461      0.91606638978730     -0.86133258924391
  H   0.66013988584386     -3.18345809147316      0.22496988301001
  H   -0.41297302941730      2.60385296562085     -0.10956998205485
  H   -1.92340489785060      2.12896055556193      0.64933478263463
  H   -1.02486372083317      0.74123396055913     -2.28423393679938
