17
Coordinates from ORCA-job sli_testing_inp/doublemontecarlogen3D70
  C   -1.83690466696244     -0.00121859974919      0.25803426098844
  C   -1.14676686697389      1.19566177694339      0.04731619422004
  C   0.22704843226842      1.19626257677815     -0.16453434790640
  C   0.96249520009605     -0.00417580688542     -0.17645409580312
  C   0.25583672342995     -1.21405296175818      0.03144910463236
  C   -1.12534286703422     -1.19736761150032      0.24591457115118
  C   0.98496755911390     -2.52357855637636     -0.00968779173811
  F   1.51711543845572     -2.77931115173691     -1.22869973817180
  F   2.03945519317716     -2.54409329776790      0.86402284082242
  F   0.19931157165846     -3.57019227105929      0.31059066262781
  N   2.32435379706003      0.01812658064386     -0.43702404625413
  H   -2.90854662082896     -0.00284044750296      0.42717739137407
  H   -1.68240836286588      2.14114340540542      0.05288928137443
  H   0.75289253026727      2.13428636416468     -0.32582591920485
  H   -1.63654335099576     -2.14010552850396      0.40612154067067
  H   2.77719247134200      0.91047856181731     -0.30324477602433
  H   2.86601381879220     -0.76043303291231     -0.09177513275868
