18
Coordinates from ORCA-job leia_inp/doublemontecarlogen3D195
  C   -2.59080257404580      1.28214595986168      0.32114403974497
  C   -2.10268215485652      2.15618984270147     -0.65233814158120
  C   -0.95312707800377      1.82528257035997     -1.37324068895258
  C   -0.33020651859611      0.61950360161035     -1.09349818795050
  C   -0.78317498940098     -0.28804181099874     -0.13609397997685
  C   -1.93578369109123      0.07529319128342      0.57306410640952
  C   -0.05833518115009     -1.59403094223257      0.11831474571504
  C   1.18658279888910     -1.44472587686119      1.00849671878189
  O   1.28283793394066     -1.94698751508139      2.09973665923546
  O   2.19755713818173     -0.71137983140387      0.48706014837233
  F   0.80767679961707      0.29836951404781     -1.79185508912900
  H   -3.48285550705032      1.53824781330423      0.88434826647010
  H   -2.60952634795574      3.09531681174325     -0.85186842281821
  H   -0.54060233529312      2.47823062831842     -2.13481093430625
  H   -2.31912467522404     -0.60362594220101      1.32984007939469
  H   0.24955062822669     -2.04148886497110     -0.83484283955025
  H   -0.71996167358862     -2.29724190570469      0.62524364592187
  H   1.95828742740110     -0.37465724377603     -0.39171012578105
