19
Coordinates from ORCA-job test_2_sl_inp/doublemontecarlogen3D262
  C   2.67054234181725     -2.73184770444417     -2.49959560758791
  C   1.63483139443691     -3.40165339680344     -3.14848748507089
  C   0.32921698105154     -3.31850195619883     -2.64329214296106
  C   0.07898062900503     -2.57478119904214     -1.48668469984036
  C   1.12248615160947     -1.90103430637254     -0.85967276366161
  C   2.42812902868029     -1.97262276655190     -1.35368576446497
  O   0.74475600335508     -1.19147522104926      0.27886516782021
  C   1.59494359500061     -0.31726079850717      0.87739946426423
  F   2.06122760151220      0.61288607743690      0.02257571160835
  F   0.92097271153043      0.29158792939471      1.84877143554766
  F   2.66500947550885     -0.93314951741476      1.42097804271638
  C   -0.83975694024293     -4.02626492048949     -3.26895866301674
  O   -1.85396807608058     -4.28585560496697     -2.66675150749727
  O   -0.71183132802035     -4.37586597122410     -4.57592227079078
  H   3.68464984538466     -2.80494082498699     -2.88019754720519
  H   1.86338019026434     -4.01703199601590     -4.01465350627035
  H   -0.92646874284339     -2.52625204045031     -1.08457808606284
  H   3.24418184339030     -1.46259254676804     -0.85923279207587
  H   0.07224729464028     -3.96004323554559     -4.96075698545099
