15
Coordinates from ORCA-job sli_prashanth_inp/doublemontecarlogen3D498
  C   -1.23297361772644      1.23511357233521     -0.00179134891744
  C   0.16202553277597      1.21756887996132      0.00061308507950
  C   0.81371095553526     -0.01023662662061     -0.00150120055485
  C   0.12102990975912     -1.21874954547488     -0.00624262897562
  C   -1.27034050379927     -1.18869134931892     -0.00833837751579
  C   -1.94918584868731      0.03628327664647     -0.00588444040343
  C   -3.45334127363705      0.02863058710585     -0.00759726069479
  F   -3.94620715435664     -0.60359956311125     -1.09857601142487
  F   -3.94745992095675     -0.62604298951955      1.06956419134933
  F   -3.97279484314486      1.27478418243322      0.00488951224888
  F   2.15996454234305     -0.03385420085947      0.00125637181861
  H   -1.76394888533371      2.18024199637790      0.00014917771761
  H   0.74250354519104      2.13362115186506      0.00446751225663
  H   0.67144583850612     -2.15319055318153     -0.00782719880396
  H   -1.83074827646853     -2.11836881863882     -0.01160138317982
