20
Coordinates from ORCA-job test_7_sl_inp/doublemontecarlogen3D354
  C   1.13974157632518      0.54865101402737      0.16328754152074
  C   0.30344833898859     -0.56827973137214      0.01109738190424
  C   -1.05412692819100     -0.38169022732272     -0.25512710510080
  C   -1.55046274816759      0.91761772350082     -0.34230021902336
  C   -0.74276528903317      2.03472562518677     -0.17663116165707
  C   0.61753649167377      1.83631747697636      0.07937446710295
  C   1.49857430168575      3.04964620009289      0.26809653713079
  F   1.36605443692450      3.90453181298605     -0.76761888721807
  F   1.15724690967429      3.72529425218080      1.38621726528692
  F   2.79872225905138      2.71790184235223      0.36963579262057
  N   -2.98658326107886      1.10888555351626     -0.62771667454210
  O   -3.40151974345848      2.26235767945624     -0.69512559184149
  O   -3.67039190899125      0.09728000283769     -0.77479161410371
  C   0.94796593087722     -1.92740662579099      0.09496311290868
  O   2.13874953644561     -2.08275944567790     -0.02717455599024
  O   0.13453831168860     -2.98799734847974      0.31072994068558
  H   2.19619939155485      0.38512725844751      0.34080572674702
  H   -1.74346576558895     -1.20023314441451     -0.43109143879714
  H   -1.17255733572238      3.02597835945675     -0.25622569966475
  H   -0.76229450465805     -2.70665827795973      0.53921518203125
