30
Coordinates from ORCA-job ewa_inp/doublemontecarlogen3D15
  C   -4.24794878123527     -6.61416633249002     -3.72472844118745
  C   -5.62675802137762     -6.04194346590616     -3.85409783800034
  C   -4.68952708853362     -5.50339332176869     -2.77882535395046
  C   -4.13056385505089     -4.18477138468766     -2.90219743946987
  C   -3.67139604224097     -3.06684098149209     -2.98830856964855
  C   -3.02384560511147     -1.75205214045786     -3.12855386923134
  C   -3.38934619122983     -0.75676565791937     -2.01252440146997
  C   -4.71018844567228     -0.57286236472438     -1.52947737041708
  C   -4.91406510113652      0.38205326428535     -0.51169204593575
  C   -3.87684700408546      1.14079059874820      0.01015614168405
  C   -2.58834494116525      0.95408832011900     -0.48682519130334
  C   -2.34864386097748      0.01892644438136     -1.48514364768722
  Cl  -1.25460709614506      1.91215563492584      0.15237246752786
  N   -5.80356760398631     -1.31874011340601     -1.95363331357008
  C   -3.38185110183499     -1.16027179118576     -4.52548009746295
  F   -2.83970666164897      0.04928215471849     -4.70222884293974
  F   -2.91222437479920     -1.97060953153187     -5.50390956726379
  F   -4.71920769893356     -1.04637928727643     -4.71022498719950
  O   -1.60622622744226     -1.90285443123350     -3.12859309479552
  H   -3.51371037110045     -6.35580645004313     -4.48075604171664
  H   -4.13146556919404     -7.60528162683693     -3.29741079195057
  H   -6.47166380061051     -6.63382963262241     -3.51592211632669
  H   -5.83455323688308     -5.39302785091638     -4.69852409126022
  H   -4.91195471703551     -5.80627727316363     -1.75795427135841
  H   -5.92105344760673      0.52005807887296     -0.12522558642633
  H   -4.06598246344427      1.86926977622546      0.79131397602300
  H   -1.34578057766964     -0.12329555254480     -1.86367146709648
  H   -5.74701187934173     -1.73849306720940     -2.86802542298442
  H   -6.70035676767219     -0.89036814246685     -1.77356356679323
  H   -1.39730146683475     -2.59367387239327     -3.77268515778889
