19
Coordinates from ORCA-job sd_inp/doublemontecarlogen3D416
  C   1.85167458959919     -0.13269027404114      0.36552731812970
  C   2.84238402526028     -0.26344702268922     -0.52551264379672
  C   3.37577729141511      0.77217446156013     -1.42664728070834
  C   2.87285321127901      2.08478626071769     -1.47486365532603
  C   3.41169932132817      3.02866022777304     -2.34314703823559
  C   4.47050786481637      2.68153594693822     -3.18732115307614
  C   4.98521682444181      1.38211318925003     -3.15514818826117
  C   4.44134281512261      0.44320131942850     -2.28506764067286
  C   5.06538870713651      3.67928475140160     -4.14255414379934
  F   4.87658157659756      3.31068948301488     -5.43205065850347
  F   4.53243145846820      4.91156954613205     -3.99636580765094
  F   6.40323800043087      3.79406305891849     -3.96939391916404
  H   1.54180960513051     -0.97245883863916      0.97903509203209
  H   1.31571202120614      0.79920624681748      0.52123479595154
  H   3.32763199421153     -1.23496202181557     -0.61479627820097
  H   2.05100717304589      2.37524539826785     -0.82813973551367
  H   3.01386099111212      4.03712392469620     -2.36737685388653
  H   5.80960081484371      1.10892342954374     -3.80679933489762
  H   4.84704171455439     -0.56499908727482     -2.26472287441989
