18
Coordinates from ORCA-job raina_inp/doublemontecarlogen3D582
  C   -1.88569167659521      0.88367523282087      0.01449339239945
  C   -2.52555781526175     -0.52620326901403     -0.00537681993496
  C   -1.36101699531355     -1.53106528194592      0.00624605948494
  O   -1.45991053181159     -2.74319606241959      0.01347700574360
  C   -0.10283729492402     -0.74267744858325      0.00479827172829
  C   -0.38969938612434      0.62581456063456      0.00648152734452
  C   0.65993007993485      1.54840135506273      0.00389916300117
  C   1.97448686777997      1.08051664533750     -0.00015754499087
  C   2.22422130189017     -0.29691124296264     -0.00116749285521
  C   1.20485412009884     -1.23529335834782      0.00152773986697
  F   3.50724802360317     -0.71319860108159     -0.00547971425628
  H   -2.18018983217800      1.45229514499542      0.90456464100774
  H   -2.18821795738297      1.48456450204576     -0.85107077780766
  H   -3.13401670370584     -0.70331505907080     -0.89857828443470
  H   -3.17275685721669     -0.71697340548583      0.85669347508357
  H   0.46740824154295      2.61807804007320      0.00502704031579
  H   2.81806643017773      1.76336960094074     -0.00259944389090
  H   1.41071998548630     -2.30047135299931      0.00047176219456
