25
Coordinates from ORCA-job sd_inp/doublemontecarlogen3D371
  B   1.38236000000000     -0.69890000000000     -2.46233000000000
  F   0.78094000000000     -1.55621000000000     -1.45345000000000
  F   1.12533000000000      0.69444000000000     -2.13735000000000
  F   0.80620000000000     -1.00429000000000     -3.76135000000000
  F   2.81661000000000     -0.92886000000000     -2.50066000000000
  C   0.94731000000000      0.16175000000000      1.28041000000000
  C   2.43808000000000      0.08894000000000      1.07970000000000
  C   3.11154000000000     -1.06636000000000      1.22964000000000
  C   4.62061000000000     -1.12191000000000      1.08116000000000
  O   5.18203000000000      0.09357000000000      0.69943000000000
  C   4.50497000000000      1.26760000000000      0.54628000000000
  C   3.17783000000000      1.31692000000000      0.73225000000000
  C   5.25844000000000      2.50923000000000      0.17674000000000
  C   5.07333000000000     -2.24307000000000      0.15031000000000
  H   0.51161000000000     -0.83239000000000      1.51426000000000
  H   0.45712000000000      0.55458000000000      0.36635000000000
  H   0.72618000000000      0.84951000000000      2.12344000000000
  H   2.58069000000000     -1.97438000000000      1.49970000000000
  H   2.63965000000000      2.25498000000000      0.61645000000000
  H   6.33496000000000      2.27888000000000      0.03376000000000
  H   5.15704000000000      3.26277000000000      0.98563000000000
  H   4.85585000000000      2.93255000000000     -0.76854000000000
  H   4.67953000000000     -3.21512000000000      0.51862000000000
  H   6.18260000000000     -2.30112000000000      0.16796000000000
  H   4.73139000000000     -2.07670000000000     -0.89127000000000
