15
Coordinates from ORCA-job test_4_sl_inp/doublemontecarlogen3D309
  C   -1.83567075398656     -0.93432876836473      0.08165665413910
  C   -0.76079016598636     -1.83346378461466      0.06920571640848
  C   0.55716803160581     -1.36133960458343      0.03591240135020
  C   0.78606462260397      0.01147882893352     -0.01327620992679
  C   -0.26650484849474      0.92849444371685     -0.01149364690276
  C   -1.56225419977077      0.42818413768794      0.04405057968617
  F   -2.58637628735163      1.29928729770045      0.06854612760057
  Cl  2.43053157764284      0.61112565929107     -0.07420121747111
  C   -0.95408654079286     -3.32454523763429      0.12851260619144
  O   -0.10046582312081     -4.08241375693039      0.52088306338052
  O   -2.15717237336969     -3.80007733990727     -0.28441113973148
  H   -2.86878695944577     -1.25616678979340      0.16656595686821
  H   1.37596225192304     -2.07026249521193      0.05040204930713
  H   -0.09502185518181      1.99768563356777     -0.04352683741584
  H   -2.66131667627466     -3.10622822385749     -0.73195610348386
