35
Coordinates from ORCA-job sli_testing_inp/doublemontecarlogen3D75
  O   2.46269941234755      0.58402026942256     -0.75201969878259
  C   2.03402668647891      0.12674395993247      0.44665464107384
  O   0.87623810250278      0.21387490802401      0.77349455702720
  C   3.12502793373721     -0.44839719299831      1.36662866093210
  C   4.32797333620894     -1.01480282118710      0.67050866831180
  C   5.57539101858531     -0.44034018931667      0.57035131024387
  N   6.44080869019210     -1.26770314978955     -0.12055416851734
  C   7.82909697006039     -0.95361124571570     -0.42958509435429
  C   8.02977973795629     -0.05010823787504     -1.63756690856601
  C   9.01536442428568      0.94357989607597     -1.60573024366848
  C   9.26324561799430      1.75005939070157     -2.71774664543968
  C   8.50323256925246      1.55234032573933     -3.86439251149674
  F   8.73440202587362      2.32380565749865     -4.94585630636024
  C   7.50765938516599      0.58218323538703     -3.92687585223915
  C   7.27783847644863     -0.21815235362031     -2.80866263290123
  C   5.74663810384290     -2.40951949653149     -0.49557094990124
  C   6.17011623671496     -3.53561430800373     -1.21479248342631
  C   5.23915287599746     -4.54464925733145     -1.43621450315255
  C   3.91582355673738     -4.44048159183585     -0.96005235295087
  C   3.49609467736021     -3.32108445636143     -0.25281400932157
  C   4.41498376368276     -2.28468133715427     -0.01200475685670
  H   3.40756506998528      0.36887476384887     -0.84113979114607
  H   2.63341595112883     -1.19206629557888      2.00084704049903
  H   3.42540775556306      0.37154624263493      2.03186692609688
  H   5.92945038586739      0.50313052666991      0.96568456352918
  H   8.35086684306208     -1.90626698592428     -0.57427596984782
  H   8.28069010737447     -0.48984787878973      0.45407270383967
  H   9.60168777108754      1.09310448687238     -0.70206123711989
  H   10.02346543507967      2.52379084530458     -2.70289198637513
  H   6.93206651008365      0.46323510336038     -4.83868688587980
  H   6.50413879263155     -0.97926163343544     -2.84953942612087
  H   7.18451156296152     -3.62487493602869     -1.59211937830607
  H   5.53847086508784     -5.42959200378076     -1.99034133425696
  H   3.21572087157859     -5.24748860714882     -1.15486481237700
  H   2.47262847708243     -3.24564563306513      0.10456086781109
