24
Coordinates from ORCA-job raina_inp/doublemontecarlogen3D58
  C   -0.22313447297858      0.46646465601663     -0.38079240021708
  C   1.09510058216080      0.04739150267588     -0.52095141973001
  C   1.41527048339731     -1.32098506680346     -0.56389976873681
  C   0.36535101860365     -2.25137639995278     -0.46381207661915
  C   -0.95119706225253     -1.82740930633077     -0.32429634119827
  C   -1.26597022785916     -0.46149708562915     -0.27754785337544
  C   -2.70069639561179      0.02376222167609     -0.11557056209424
  C   -3.57348141515323     -0.38540889943955     -1.33508659589979
  F   -3.02228435285080      0.06160140992086     -2.47097013013962
  F   -3.74185587327815     -1.71546969657045     -1.44337339213526
  F   -4.80669415662271      0.17247209967837     -1.23632579406391
  C   -3.32550759552050     -0.49251147070234      1.21196370046580
  F   -3.55356886245960     -1.81954933952202      1.21144327128098
  F   -2.52651781156456     -0.20517883931339      2.24812429036607
  F   -4.51408039442609      0.12070028022233      1.43670737380122
  O   -2.70884869195661      1.43281304342667     -0.05421368080288
  N   2.72728839572262     -1.74267620978715     -0.75288207470512
  H   -0.44815708143416      1.52537904096875     -0.34592745903876
  H   1.88883989029821      0.78632318107567     -0.60130924768393
  H   0.58578869255096     -3.31544944356805     -0.49903385665323
  H   -1.73341005493402     -2.57300712327368     -0.24660295265057
  H   -3.62897220149102      1.71501702695226      0.05268833934184
  H   3.44486249026985     -1.08095775837998     -0.49296126539973
  H   2.93712509739009     -2.68304782334073     -0.44963010411211
