15
Coordinates from ORCA-job srijon_inp/doublemontecarlogen3D450
  C   0.68036146374076     -1.43667795513963     -0.10476112504994
  C   -0.61238258373476     -1.95234390019355     -0.14764223031381
  C   -1.74321615250742     -1.12315522952053     -0.07474065342216
  C   -1.52439421964029      0.25704287541336      0.04003623518213
  C   -0.24663588972039      0.80269561093896      0.10014543624224
  C   0.84822536396384     -0.05655383634109      0.02281948968003
  Cl  2.46359827036839      0.61393608421270      0.08642942119299
  F   -2.56293624810313      1.09416023361123      0.12987231558157
  C   -3.13375649453007     -1.67617722058141     -0.18763930581784
  O   -4.04050330290390     -1.12108026802526     -0.75380215028808
  O   -3.31889299278101     -2.90359798673481      0.37556175121418
  H   1.54349461686723     -2.08799789325614     -0.17661840968493
  H   -0.74513743938527     -3.02285706825362     -0.27910653814735
  H   -0.12553011744213      1.87418689476400      0.20440407354060
  H   -2.56305427419182     -3.13137034089419      0.93533169009037
