49
Coordinates from ORCA-job raina_inp/doublemontecarlogen3D618
  C   -1.63177868050502     -2.73242781543731     -3.82572455036945
  N   -0.93863157694485     -3.35208954405299     -2.68799410159399
  C   -0.97057735962892     -4.82436034470336     -2.69731470419044
  P   -0.08919743333197     -2.43717503776750     -1.61357931531606
  N   1.49420343172749     -2.26756022794165     -1.97754905528914
  C   2.42207682690670     -1.55752076049841     -1.06192188910321
  C   2.15913384465587     -3.09482465587781     -2.99669971706439
  N   -0.80788736933867     -0.99164722407424     -1.43648745751524
  C   -2.02292811778324     -0.85299902676571     -0.60713443772844
  C   -0.20716453224342      0.29288011460255     -1.85137422033551
  O   -0.31523174396059     -3.31433637325878     -0.19517008273430
  N   0.78581863794708     -3.94894252572693      0.34565420219921
  C   1.26754408988494     -3.83206344876353      1.62524003140923
  C   1.05824386984695     -2.94906650056409      2.69152325033717
  C   1.81534963429645     -3.19876620471449      3.82433425294699
  C   2.73915703350789     -4.27318113063767      3.90425922672919
  C   2.94360418522436     -5.13281538906706      2.83954563456303
  C   2.18664506450162     -4.90284388319939      1.67609336803493
  N   2.17412866923648     -5.58213665898780      0.47354697666378
  N   1.30791225577484     -5.02129679744604     -0.30816000970827
  F   0.62777409895984      0.09204531473901      3.38221055107833
  P   1.10374857814017      0.77563437856486      1.97809276287435
  F   0.31807059382222     -0.46999234634944      1.14662604021261
  F   2.44773721464564     -0.15556418351914      1.97301206174772
  F   1.86689555961812      1.96643903773871      2.74865585085763
  F   1.55375801020583      1.38630081123494      0.51350505762396
  F   -0.28156539400929      1.62692263132872      1.90270433705963
  H   -1.65792016634865     -1.64859246774093     -3.71536496918104
  H   -2.66174404737362     -3.10380567430549     -3.86608422168560
  H   -1.13396932418992     -2.98501938245728     -4.77024410368821
  H   -2.00922514445805     -5.16242343177684     -2.61087275519403
  H   -0.38511467152029     -5.23466153761463     -1.87646899198779
  H   -0.55702022517204     -5.20125308085298     -3.64051081755144
  H   3.00580357951484     -0.83657422152527     -1.64247548695907
  H   3.10137970965661     -2.27973693004314     -0.59827304273160
  H   1.88807592385958     -1.02381535436847     -0.27773764292127
  H   1.43181931479738     -3.49341084298604     -3.70458719466822
  H   2.69572623983310     -3.92777053646687     -2.53022267931752
  H   2.86853702078363     -2.46598329503445     -3.54361275690074
  H   -1.77783408768348     -0.26894455193672      0.28260955861785
  H   -2.39425741988079     -1.83164704065230     -0.29797238020475
  H   -2.79998242727104     -0.35094018001662     -1.19366493275675
  H   -0.97460241966929      0.87153979303259     -2.37727388211901
  H   0.62308906089114      0.11684590555404     -2.53581845465810
  H   0.15154694667148      0.84233793368612     -0.97939871791568
  H   0.39442357425039     -2.10011396589043      2.62309257224946
  H   1.70900176338189     -2.52467591526153      4.66823939888653
  H   3.30465606670548     -4.41115440081594      4.82079919723409
  H   3.65261134206495     -5.95294303138153      2.87948824006376
