18
Coordinates from ORCA-job srijon_inp/doublemontecarlogen3D469
  O   3.10290424869012      0.21526876157452     -1.32320215566053
  C   2.52929593050710      0.02883473625972     -0.10634325332839
  O   1.48519841643702     -0.57310958561176     -0.00525056144512
  C   3.24283170067262      0.59936303740409      1.06109419197628
  C   4.30069543988954      1.46569895915260      1.10826927467233
  C   4.68061918907087      1.79640340774520      2.44692028566003
  C   3.86975263409436      1.15558438747984      3.41858703609665
  S   2.64650376247305      0.16105442612702      2.65630578521735
  C   4.08111929075192      1.34970096276754      4.79066046977627
  C   5.11260999149228      2.19395876467699      5.18466788871155
  C   5.93507730141494      2.84532438155976      4.24336443036601
  C   5.70871375268272      2.64020740823031      2.89811692614482
  F   6.48024041180316      3.25165398045119      1.97573294446522
  H   3.98743835791753      0.59615931902184     -1.23274771244971
  H   4.79708095235993      1.89165912881247      0.24263499862681
  H   3.45545816310124      0.85692866950136      5.52746618937744
  H   5.29322868868011      2.35939650646757      6.24243364637275
  H   6.73946176796143      3.50199274837973      4.55582961542022
