33
Coordinates from ORCA-job test_1_sl_inp/doublemontecarlogen3D24
  C   -0.77158095488093     -6.81396320363824      4.83494146725106
  C   -1.87616676471444     -7.40451951608075      3.94655465551158
  C   -2.71543108740164     -6.19162046086520      3.51020069780706
  N   -2.47014942873608     -5.16142217507787      4.57965516167599
  C   -1.49703233174246     -5.68733919305246      5.57842479414904
  S   -2.28980031510019     -3.56507195951587      4.08817617266570
  O   -0.88965305827076     -3.13254632065595      4.02595013450902
  O   -3.13203639262704     -3.44765666286366      2.87556930645699
  C   -3.07891327955329     -2.66702766025303      5.42663016765808
  C   -4.39332432658527     -2.98480668809594      5.78762348339330
  C   -5.00975594148987     -2.24425471300135      6.79255548373089
  C   -4.32557178363909     -1.19762470691881      7.41853003615719
  C   -3.01964938766731     -0.88902088885762      7.03741907930099
  C   -2.38278567144596     -1.62612387278916      6.03314915393873
  C   -2.25796272366347      0.23042183566112      7.70237408485932
  F   -3.04620827309189      0.97159521789639      8.50839304988451
  F   -1.24200206691401     -0.24681817227663      8.45535977149864
  F   -1.71213144331052      1.05868544187533      6.78643860013013
  C   -4.22645770316515     -6.49604604548222      3.42092786097826
  O   -4.70016535918196     -7.57672401938488      3.68139775461016
  O   -4.99622008616557     -5.46346327762832      3.03507285227719
  H   0.03501246925328     -6.39105461476682      4.22584019792017
  H   -0.33528248653263     -7.55027184057899      5.51588918592173
  H   -2.51904621730027     -8.08937561400549      4.50620609469633
  H   -1.48880333552042     -7.94786257507215      3.08109306113586
  H   -2.38586160988741     -5.80622277644309      2.53866234172135
  H   -2.05570836444503     -6.06647910392594      6.44140071205359
  H   -0.82906978293995     -4.89244974270763      5.91667225032236
  H   -4.91751966251102     -3.79568077960288      5.29202452415941
  H   -6.02758753759680     -2.47823459632717      7.08782516419420
  H   -4.80662813399002     -0.61714902114741      8.19778955335259
  H   -1.36896460262508     -1.39813259272360      5.72243024281224
  H   -4.44193235655766     -4.67723970169361      2.83314290326618
