14
Coordinates from ORCA-job ewa_inp/doublemontecarlogen3D155
  C   0.96581733905867      0.08154243886438      0.11277222406965
  C   2.47247776065242      0.09973816214679      0.04874898067492
  C   3.18495541375147      1.29829032994987      0.01514983036899
  C   4.57757707164591      1.22729113652553     -0.04736800937092
  N   5.29378392700962      0.12566197388182     -0.07847800987536
  C   4.60224078716009     -1.02741405933123     -0.04620551196887
  C   3.21555248255281     -1.09360459066135      0.01679475353550
  F   5.26272934072143      2.38342758258479     -0.07683094816640
  H   0.55449841544909      1.09118308750566      0.19164321852841
  H   0.61678250995611     -0.49734814486444      0.97504493287106
  H   0.54261546140780     -0.38805337522025     -0.78270059226108
  H   2.69086519046982      2.26369646014566      0.03726051844004
  H   5.19727806456433     -1.93818115020277     -0.07184059082240
  H   2.71740623560043     -2.05841985132446      0.04173920397647
