17
Coordinates from ORCA-job sli_prashanth_inp/doublemontecarlogen3D533
  C   -1.38144192205114      1.51208051100350      0.10843396269013
  C   -2.66336426932785      0.96627974402733      0.04999833607731
  C   -2.76771804405160     -0.42014925130893     -0.15701890706547
  C   -1.63898762360557     -1.21685779070149     -0.31201550857241
  C   -0.36516817560252     -0.65743873477438     -0.23335184145336
  C   -0.23665627795422      0.72128970193929     -0.01646261501342
  Cl  1.31953911253137      1.48492992574146      0.08755359620611
  Cl  1.01907409311450     -1.69152346554063     -0.41055964727298
  N   -4.06178732809965     -1.13545467435266     -0.20200237155217
  O   -4.09984711734309     -2.17279816892162     -0.86091632499848
  O   -4.99172674047171     -0.66672982783496      0.44370914303657
  C   -3.83966095259237      1.92725414866678      0.17136451185854
  F   -4.75738938864661      1.71376996090143     -0.78630656391168
  F   -4.43381587104201      1.85353191927484      1.37073803165738
  F   -3.40995066123653      3.20426281053035      0.02542234442373
  H   -1.26555858144629      2.57930256352662      0.24376003210848
  H   -1.76408025217469     -2.27675937217692     -0.49242617821828
