21
Coordinates from ORCA-job raina_inp/doublemontecarlogen3D579
  C   1.63588710902269     -1.26326454796595     -0.15448203876355
  C   2.45430061647500      0.01633173185578      0.15225194847969
  N   1.55022817162135      1.10657342272895     -0.26160394459491
  C   0.23644591022835      0.64836432089827     -0.14020887066359
  C   0.20929614610882     -0.75945632169156     -0.07409445435167
  C   -0.99824267647989     -1.43237171076401      0.01038357105882
  C   -2.19604125741653     -0.70158492188075      0.04620386181107
  C   -2.15664880779987      0.69191943828075     -0.00987224574487
  C   -0.94203695397071      1.38892377828163     -0.10779977424538
  C   -3.42813814535371      1.49556776958707      0.02464593038670
  F   -3.66985372319719      2.10674448267836     -1.16024856864482
  F   -4.51229384051094      0.74215764343480      0.31055338164225
  F   -3.36670756373116      2.48069804226658      0.95427716000579
  H   1.85896546511258     -2.07612812859961      0.54270865893423
  H   1.85565177315310     -1.62747278755577     -1.16710708883666
  H   3.39816532107543      0.06074991234117     -0.39861113676198
  H   2.68168526781168      0.07072972915759      1.22869431371564
  H   1.75192578522849      2.02636531528686      0.10897905998842
  H   -1.02455401148627     -2.51773194236211      0.06268239929515
  H   -3.14889370986034     -1.21082594694395      0.12713151836136
  H   -0.93099087603087      2.47388072096590     -0.14445368107168
