31
Coordinates from ORCA-job leia_inp/doublemontecarlogen3D182
  C   1.03589590404519     -0.23523265141616      0.14165106253659
  C   2.54156297457860     -0.16236234014742      0.44033715746218
  C   2.93617732700613     -0.93551912179008      1.69097582349925
  C   3.38301584571139     -0.26613824718039      2.83639902281874
  C   3.71129723720266     -0.98314173127227      3.98167519207502
  C   3.62797701817061     -2.37930922212167      4.06143841458223
  C   3.18448822176823     -3.03224229172501      2.89555428210922
  C   2.84475621203237     -2.33644651719942      1.73924246117305
  C   3.97148898693726     -3.14166949937156      5.28911785377928
  C   3.19270579997604     -4.24891887259802      5.66759054713898
  C   3.51830405036860     -5.00147304025416      6.79538649452223
  C   4.62996307581989     -4.66146676284098      7.56845908101948
  C   5.40901442550809     -3.56027053629027      7.20659543609735
  C   5.08315724872446     -2.80464321956685      6.08125297201450
  F   4.11417908430138     -0.27527004716190      5.06096816802327
  C   3.36002344047578     -0.57722477156159     -0.79967143675952
  O   2.90719215896537     -0.62865630566097     -1.91621929332650
  O   4.67322273794851     -0.83493542207355     -0.57978827024363
  H   0.46365987697108      0.17235461154983      0.97974392149104
  H   0.71854076782440     -1.26924200938206     -0.02077109966794
  H   0.80438557920814      0.33026639506645     -0.76310238900212
  H   2.80760483118961      0.89206692783487      0.60627219065314
  H   3.46376461973934      0.81658990137854      2.86397794236271
  H   3.12946643376812     -4.11654399907260      2.89957196595390
  H   2.51655536884938     -2.88782247351758      0.86218013922654
  H   2.31293467440879     -4.50844832669312      5.08552519826263
  H   2.89830867535982     -5.84921201728601      7.07351374631618
  H   4.88503921339890     -5.24703255042354      8.44717824255959
  H   6.27698291574467     -3.28866516866033      7.80101536305678
  H   5.69785604095062     -1.95391605737409      5.80934690029063
  H   4.85082925304652     -0.82659463318804      0.37393290997517
