24
Coordinates from ORCA-job raina_inp/doublemontecarlogen3D593
  C   -2.46381190545897     -0.68896146953249     -0.34697339797370
  C   -1.25669521179966     -1.52227263201309      0.10836002848217
  C   0.04056001812058     -0.73864593856084      0.02465038946016
  C   0.01400897474745      0.67512037533476     -0.00198597254882
  C   1.22702066128817      1.38549057534372     -0.04784098594525
  C   2.44298080189632      0.70991962478554     -0.07132495074540
  C   2.48048187265559     -0.68850989272891     -0.05713797767753
  C   1.27744275547072     -1.38840395573686     -0.01350897976487
  C   3.73511809973761      1.47877552843587     -0.05714673995402
  F   4.63527058815004      0.96716495777117     -0.92934617883556
  F   3.56513215299253      2.78326338678681     -0.37349311868617
  F   4.32213670598480      1.44499999107304      1.16462196031303
  N   -1.19380975160606      1.36512712610056     -0.03249357435154
  C   -2.43357570194574      0.68718017448350      0.32216524501365
  H   -3.39937323603972     -1.20201010783685     -0.10039178977551
  H   -2.43796268431755     -0.55260399841381     -1.43437931943813
  H   -1.17868684915082     -2.43851532139665     -0.48862006439104
  H   -1.41704263310351     -1.84957159660725      1.14615687657682
  H   1.21315005485556      2.47076896270914     -0.07437375337344
  H   3.42896271013715     -1.21352054559423     -0.08753255280983
  H   1.29292109804248     -2.47614193240176     -0.00501213664633
  H   -1.13600092927440      2.33900749085154      0.22969583218005
  H   -3.27178711134940      1.30279091614341     -0.02149099026332
  H   -2.54225048003314      0.56568828100368      1.41443215115456
