17
Coordinates from ORCA-job sli_prashanth_inp/doublemontecarlogen3D485
  C   2.15858353268110      0.29669309390201      1.39944689475948
  N   2.09253939899817     -0.52050590801718      0.20322391577572
  C   3.02058032274047     -1.53455654766869     -0.03538466443475
  C   3.10545928340330     -2.10828730226796     -1.32087063870077
  C   3.98610890027980     -3.15111117340005     -1.58737156232769
  C   4.79394475424309     -3.63606480274236     -0.56300244008181
  C   4.73903190596483     -3.09268950352134      0.71202234516210
  C   3.85847258212794     -2.04072242475700      0.97538803079775
  F   5.64968761756540     -4.65502763410301     -0.81940122344353
  H   1.38950022299552      1.07061315647601      1.33919245028823
  H   3.13504056374507      0.78701893478734      1.54730099060963
  H   1.94651722689272     -0.30611567478373      2.28992814230155
  H   1.81683374727307     -0.01888434490561     -0.62874142795556
  H   2.46435294369429     -1.73216375884805     -2.11489934585065
  H   4.05219872187477     -3.59228529135686     -2.57662949132064
  H   5.38542974952533     -3.48652333127196      1.48972370876130
  H   3.82740852599512     -1.61947748752153      1.97394431565963
