41
Coordinates from ORCA-job sli_testing_inp/doublemontecarlogen3D612
  C   -0.92960074547686     -4.05229152219319      2.74072106821511
  C   -0.96347139280015     -2.67431797374519      2.50855016852273
  C   -2.14239950985472     -2.06429880431358      2.08139485827096
  C   -3.30811538790130     -2.81949466033345      1.87812350542639
  C   -3.26231143536725     -4.20066717298721      2.11624968848393
  C   -2.08158227893816     -4.81420876861209      2.54469527696282
  C   -4.58029384739128     -2.15417048797849      1.39251922840751
  C   -4.54115624341711     -1.79617068979455     -0.10309361216769
  N   -4.35391766128687     -3.00328006567448     -0.91433348260296
  C   -4.53577245742715     -3.00527837644678     -2.27818609285834
  C   -5.18779266363060     -1.95654675506431     -2.96422702275953
  C   -5.42005419030275     -2.02803085905498     -4.33490020001644
  C   -5.00034169775213     -3.12778975668207     -5.07642883960810
  C   -4.34062719455118     -4.18975648016710     -4.41545982349504
  C   -4.12762038878165     -4.11828461038159     -3.04554489989935
  C   -3.80932104903251     -5.42372572727978     -5.12586543421612
  F   -4.70177540556477     -5.92003026923822     -6.01715869690104
  F   -2.66713681949912     -5.17448124393227     -5.77914887737163
  F   -3.55755834089921     -6.42215996857480     -4.24792092305789
  S   -5.32584836310423     -3.03137365411336     -6.85037867237012
  O   -5.88960504187725     -1.70340092288466     -7.10632491284397
  O   -4.13352194275892     -3.50118014973979     -7.55577092233834
  N   -6.61193438536954     -4.10561988603724     -7.06865888584588
  S   -5.72142483057739     -0.50057961825494     -2.07044824391103
  O   -7.09294112362080     -0.17722261118881     -2.45308010882940
  O   -4.65791758147075      0.50051427598649     -2.10272444936247
  N   -5.77281109845209     -1.11191045798235     -0.48794660226205
  H   -0.01216914880973     -4.52604693933669      3.07778758187481
  H   -0.07203814503177     -2.07370954961404      2.66574273107761
  H   -2.16195792691465     -0.98988017773430      1.91331508459351
  H   -4.16223009505282     -4.79727319249886      1.98303122665620
  H   -2.06697285778855     -5.88426065469402      2.73172156417168
  H   -4.76029862522059     -1.21977869981628      1.93336478579100
  H   -5.44077702345988     -2.80953668144508      1.57242280975647
  H   -3.72985158561299     -1.07794587902388     -0.28156484066908
  H   -3.70953012369612     -3.68751535428494     -0.53911824337334
  H   -5.93492062871456     -1.21770245129755     -4.84003938776765
  H   -3.63760723676524     -4.94623504755134     -2.54578526615327
  H   -7.28311864773360     -3.67084336980171     -7.69674644627478
  H   -6.28179150971913     -5.00151340320112     -7.41552869374602
  H   -6.60594336837456     -1.69040138303134     -0.37817599750917
