15
Coordinates from ORCA-job leia_inp/doublemontecarlogen3D176
  C   0.69562976250838      0.65149595784001     -1.91034460172064
  O   1.89845742589383      0.82715794332183     -2.66615864903736
  C   2.77295096390750     -0.19850779701372     -2.68659773029660
  N   2.48251933789692     -1.31672725989739     -2.02063574164383
  C   3.37165325945093     -2.29309458481169     -2.07178223212896
  C   4.57884605796586     -2.25743119861818     -2.75571035519124
  C   4.86101989567245     -1.07317358288750     -3.44674510755493
  C   3.95744682302685     -0.01953745821671     -3.42279168050600
  F   3.04837393637927     -3.40472275365225     -1.39028540876627
  H   0.14758336635262      1.58836915270295     -2.01970344770816
  H   0.91702548946661      0.46077630725848     -0.85613116088889
  H   0.10445806354857     -0.18305432523688     -2.29860159649203
  H   5.24881927722821     -3.10804284261334     -2.74316976504621
  H   5.78938274630803     -0.97941213571119     -4.00278893577792
  H   4.13467359439396      0.91455457753558     -3.94206358724094
