12
Coordinates from ORCA-job leia_inp/doublemontecarlogen3D215
  C   0.97482054365873      0.45136190926860     -0.17467745466091
  C   0.62253857779585     -0.01927294842344     -1.57320272806994
  F   0.35167398153848      1.03934079067690     -2.37837852038983
  F   1.61075141037883     -0.72187303700089     -2.15382817479573
  F   -0.47945576102631     -0.80081911088000     -1.54898417283938
  N   2.13801002339119      1.32579633135714     -0.22778782441327
  Cl  1.61588173442850     -3.06847234607018      1.92521617570370
  H   1.20822043599600     -0.43595191948946      0.42146857062273
  H   0.05378369786292      0.89231050067858      0.24192425051216
  H   1.90143534239503      2.18990550493785     -0.70758880975984
  H   2.43396910854626      1.57098078387533      0.71144591654455
  H   2.66959090503452     -3.17023645893041      1.19416277154578
