20
Coordinates from ORCA-job leia_inp/doublemontecarlogen3D206
  C   1.34212103903441      0.26245693867662      0.94205913507431
  C   0.19881318245693     -0.37617282841210      1.41174372480835
  C   -1.08030452131727     -0.12133871904130      0.89311150857050
  C   -1.15410686708553      0.86442293156251     -0.11879373993209
  C   -0.02208975807373      1.54466816542012     -0.57018136789664
  C   1.23132791812770      1.23067170534384     -0.05447311537707
  C   2.43887951196061      1.96416741477458     -0.58738703149668
  F   2.54602653965814      1.80952104753077     -1.92387741899019
  F   2.34638189488599      3.28864348284202     -0.34768640771137
  F   3.58111052075469      1.52183616769980     -0.02777604134948
  N   -2.39931147218821      1.28919443443641     -0.79707910878942
  O   -3.29248935290072      0.45202812618536     -1.00482679462795
  O   -2.46928342005527      2.44789331225155     -1.17562023769676
  C   -2.17901655250477     -0.91639160138769      1.61648733581962
  O   -1.96746451345524     -1.30311454727472      2.74461853285217
  O   -3.30457925321772     -1.21177021855954      0.97798384084618
  H   2.31368057920156      0.01801084115033      1.35607166821693
  H   0.26384394689979     -1.09382297243313      2.22085106929926
  H   -0.13718352453307      2.31098590951364     -1.32670653465040
  H   -3.33406589764827     -0.77186959027908      0.09892098303073
