27
Coordinates from ORCA-job sli_testing_inp/doublemontecarlogen3D60
  O   2.76982209652421     -2.01469360571852     -2.66119603799269
  C   3.83515895131786     -1.30926039947162     -3.10467231498676
  O   4.00050568369303     -0.13698499750835     -2.83576156425203
  C   4.72615581407818     -2.09759124729243     -4.00941797248563
  C   5.42360140018452     -1.36761748534258     -4.97887706143168
  C   6.23777321203727     -2.01215363946852     -5.90841914953769
  C   6.36004092484640     -3.40134719747239     -5.87245782563260
  C   5.67643542052644     -4.13656128341997     -4.90207318256716
  C   4.86164221569128     -3.50080544732522     -3.95587201423986
  C   4.33089532431365     -4.32116355141116     -2.79959945362134
  O   4.66241771874670     -4.02666638548967     -1.66042277902902
  C   3.47843780243864     -5.51563794953865     -3.07649571113384
  C   2.88599787549889     -5.75629873492166     -4.32652520892715
  C   2.08000717980738     -6.87556286310494     -4.52713947617574
  C   1.87830633589553     -7.74962599106393     -3.46358783001227
  F   1.11092198349968     -8.83876349516214     -3.65357939475316
  C   2.44336750039305     -7.53597779116260     -2.20703624456727
  C   3.23847329163746     -6.41216342563410     -2.02011767645895
  H   2.28348747603491     -1.42329994712378     -2.06277817195369
  H   5.30786492979852     -0.28884280333881     -4.98848855434236
  H   6.77070574994906     -1.43326474580984     -6.65683077617009
  H   6.99298516495476     -3.91473130106589     -6.59070831295987
  H   5.79647251142054     -5.21521924988338     -4.85898338402483
  H   3.04565685105857     -5.06142124575892     -5.14422447347114
  H   1.60881834932240     -7.07737451398646     -5.48307099933641
  H   2.25253420690236     -8.24423684781780     -1.40773333662303
  H   3.69169402942865     -6.20276385470660     -1.05685109331368
