14
Coordinates from ORCA-job ewa_inp/doublemontecarlogen3D157
  C   1.89988341397869     -0.18614958689779      0.11796740375815
  C   1.05861769105372     -1.29541259164744      0.06277689197330
  N   -0.27350898912371     -1.20708080059170     -0.05644531723109
  C   -0.78571028965458      0.00625326140382     -0.10444691381791
  C   -0.06292873532654      1.19710392357148     -0.04585105529851
  C   1.32361411598797      1.09217420633599      0.05425335609581
  C   2.12194095714187      2.36864431595575      0.12198698085003
  O   1.64423688084173      3.42044051993464      0.46988201447299
  O   3.42883397920662      2.28567119517497     -0.23000999175527
  F   -2.11676901254174      0.08007274522308     -0.21860462294251
  H   2.96793105938320     -0.33200161716452      0.25039550496486
  H   1.46737750789566     -2.30175900220479      0.11951703569374
  H   -0.55125984796476      2.16345867275600     -0.07633733252206
  H   3.62113126912186      1.42397475815053     -0.62612395424153
