12
Coordinates from ORCA-job sli_prashanth_inp/doublemontecarlogen3D52
  C   1.18393395870173      0.54079177768848      0.26633486768500
  O   1.22417606166385      1.59565545524276     -0.65471197899043
  C   -0.14147862559729     -0.22546437260907      0.13303072234050
  F   -0.20253654880878     -1.29202728229066      0.94575411079102
  F   -1.16923185269373      0.58600097672023      0.42950936943092
  F   -0.30662046530046     -0.65263897079490     -1.14026295398961
  C   2.42085817057996     -0.35661663675413      0.10627759213965
  F   2.46277418637771     -0.88488889024548     -1.13780485763417
  F   3.53581271037841      0.37009508258728      0.28162994330249
  F   2.43532425398012     -1.36420827410648      0.99397840382757
  H   1.21868013255217      0.97194378156998      1.27060088179141
  H   1.16425801816630      1.21263735299199     -1.54295610069435
