21
Coordinates from ORCA-job srijon_inp/doublemontecarlogen3D48
  C   1.09432668067844      0.62402018205978     -0.00110482041509
  N   2.48826913107354      0.21601106498149     -0.00373993640125
  N   3.47815824819072      1.14769999064400      0.05787623676515
  C   4.62411392992202      0.47601197085384      0.04372155712240
  C   4.40644826565478     -0.92714946615036     -0.02048010675152
  C   3.01283167091185     -1.03140552451684     -0.04307932041149
  S   2.43805811959481     -2.66381011393125     -0.16316527289699
  C   4.13979091432281     -3.22835825872417     -0.15112053163009
  C   5.04352315272058     -2.20101852429303     -0.09169292239513
  C   4.50204768113867     -4.66419931211884     -0.21189841696451
  O   3.51254141511319     -5.56828514426558      0.02805195453325
  O   5.62192824320849     -5.03814789379225     -0.46778428624092
  C   5.93168594285166      1.19684182809427      0.15827941231397
  F   6.90539534207279      0.48361131317786     -0.45418750944585
  F   5.89016240409487      2.41798873212543     -0.39630471602307
  F   6.30448277755248      1.34746471907500      1.44901216664490
  H   1.07621331254383      1.71064476030275     -0.07283781348044
  H   0.60029049222701      0.30884133124320      0.92361232147873
  H   0.57175255760289      0.19066231109956     -0.85929031793589
  H   6.11117133513412     -2.38088212159802     -0.09151056270069
  H   2.73183838339031     -5.14718184426680      0.41669288483453
