22
Coordinates from ORCA-job test_3_sl_inp/doublemontecarlogen3D282
  O   2.81793553172988     -0.88696082895170     -0.49027547024786
  C   2.35973829311923      0.41134792708204     -0.90000093881766
  C   2.20055941280902      1.31821048244200      0.34824445755863
  O   2.37347718471927      0.66569772752057      1.50582125647124
  O   1.88873955832815      2.48485025099125      0.29842670212647
  C   3.20412910417309      0.98548507630739     -2.03515753046117
  C   3.32392584820748      2.36251307540662     -2.27306811041418
  C   4.09241647531465      2.82582745748632     -3.34192751658678
  C   4.74608597200018      1.93347986206457     -4.18979487571663
  C   4.61770028829788      0.56136528913547     -3.96521441851008
  C   3.84654890546489      0.08949233370417     -2.90118109166797
  C   5.36446686859534     -0.41160066881681     -4.83957942208133
  F   5.45592941075017      0.02768684470607     -6.11358118721687
  F   6.63143351247804     -0.59951536288591     -4.39844584391173
  F   4.77436736385809     -1.62736841049511     -4.86701551826298
  H   3.78512771250738     -0.88898745353844     -0.55461006533055
  H   1.33638294822747      0.24911801862706     -1.26536114498217
  H   2.56588327491214     -0.26433969341182      1.26983855844998
  H   2.81652286172669      3.06005208238355     -1.61823081061920
  H   4.17950332398499      3.89465561118712     -3.51280044811167
  H   5.33912775958149      2.29378472448882     -5.02375696220522
  H   3.73152838921438     -0.98032434543325     -2.76586961946222
