21
Coordinates from ORCA-job srijon_inp/doublemontecarlogen3D46
  C   2.29124724099912     -0.13498408013746      5.17492985484235
  O   3.39202679042064      0.23786879300686      6.00154899450136
  C   4.35444735781128      1.03530781902885      5.49782753272022
  C   5.41562809844514      1.36582444424295      6.37663091488092
  C   6.44425089976868      2.18729087345978      5.93919090082009
  C   6.42404925768417      2.67790203539143      4.63321967448790
  C   5.39289658981533      2.35990394713057      3.75458058341325
  C   4.35702124206778      1.53828400935977      4.18691332634900
  N   7.51315607354888      3.54499721682140      4.17876525510129
  O   8.40695899475060      3.80924007840165      4.98354251065245
  O   7.46782118227126      3.95729420184678      3.01860840915452
  C   5.42747108548937      0.81810894881480      7.78404331229381
  F   5.44889059720497     -0.53112637850380      7.79464664370126
  F   6.51681613044941      1.23973010849712      8.46387609309156
  F   4.34244389695238      1.20811184297061      8.48468587363023
  H   2.62620168509473     -0.70696544892872      4.30182482404434
  H   1.72578913857843      0.74444254301760      4.84566853861330
  H   1.65598216908324     -0.76289670618178      5.79954181703770
  H   7.26142189249142      2.45168019626108      6.59692523434869
  H   5.41244705184116      2.75701548243551      2.74697935763815
  H   3.55557262523197      1.29157007306499      3.50210034867754
