18
Coordinates from ORCA-job sli_testing_inp/doublemontecarlogen3D74
  C   2.21631200558087     -2.33323093232188      0.53658458627650
  C   1.07940898347246     -1.52131619164010      0.50176783140527
  C   1.16361264395578     -0.18280754444119      0.88803597438889
  C   2.38447818964914      0.35386566282831      1.31279110761463
  C   3.53436210214020     -0.46270259629344      1.35964131612399
  C   3.43048904350431     -1.80446358346119      0.96255498498930
  C   4.87143359271947      0.01938976407353      1.81682388705383
  O   5.85813340210774     -0.69254071774139      1.83399669956827
  S   2.39912195077814      2.07544618809755      1.84786963697707
  C   2.96732075568563      2.86816829814601      0.30191221640516
  F   3.04779735795989      4.18685411809461      0.53660227918285
  F   4.17821740516293      2.43121286414253     -0.08978443604771
  F   2.12594277442269      2.66891108191099     -0.72489794551156
  H   2.15274481014267     -3.37452708476625      0.23447263003752
  H   0.12686003596754     -1.92657441029991      0.17278220247297
  H   0.28491883023138      0.45307804931639      0.86206158667799
  H   4.33115736104880     -2.40919597850911      1.00379259863754
  H   4.91961875547035      1.07088301286456      2.15014284374750
