19
Coordinates from ORCA-job test_3_sl_inp/doublemontecarlogen3D274
  C   1.48488673279398     -0.07795819688860     -0.14140624190273
  C   0.68663454390315     -1.21028356479377      0.02560125898647
  C   -0.68620930877341     -1.08705575288640      0.27194471162972
  C   -1.24642106297635      0.19093995481131      0.36117379673302
  C   -0.44512286278336      1.32407304043099      0.20369383350675
  C   0.92306638740292      1.19520110674252     -0.05138376817558
  C   -1.04477932720530      2.69479728460970      0.37091319913631
  F   -0.42942443337718      3.61196337089431     -0.40942043119732
  F   -2.36022883261954      2.71591228406316      0.06353826773014
  F   -0.93313012391624      3.13324216491772      1.64833897381694
  C   -1.56370444386757     -2.31900125404740      0.41149625524709
  O   -2.73911824897336     -2.10303344313202      1.17492602511671
  H   2.54793577937777     -0.18748270529234     -0.33539564506752
  H   1.13435189703086     -2.19997229682522     -0.03533555654430
  H   -2.30961379616268      0.29199164624053      0.54981974702395
  H   1.53661806926344      2.08049106282100     -0.18073461678516
  H   -0.96438461247548     -3.15213240116499      0.81254135775442
  H   -1.91762544994146     -2.63492641930220     -0.57762367611585
  H   -2.46895090670019     -1.84158588119831      2.06572250910692
