17
Coordinates from ORCA-job ewa_inp/doublemontecarlogen3D160
  C   -1.81638122836092      1.79192085904722      0.15435027914872
  C   -0.47856643276134      2.18365892766460      0.23936418183284
  C   0.51485227295586      1.22197233572829      0.15536696626190
  C   0.21211945762761     -0.14220078084050     -0.01802627743362
  C   -1.13061291207725     -0.52065861493410     -0.10324571884965
  C   -2.13735801541567      0.44352882271780     -0.01571944005467
  C   -3.57221589722470     -0.01187322891449     -0.08679091452861
  F   -3.80209255951775     -0.75095662611850     -1.19532868882718
  F   -3.89493130308734     -0.78973916046762      0.97142205757776
  F   -4.43511870892245      1.02498842393010     -0.10321681555183
  N   1.21595064856734     -1.08375400114245     -0.10260885328045
  C   2.40614030920163     -1.27220342047146     -0.08989711061097
  S   3.93440362671938     -1.67323905327692     -0.08774611398367
  F   1.80544581526553      1.57882399744478      0.23856404855218
  H   -2.60472070260494      2.53245202273750      0.21852783335012
  H   -0.19593547427190      3.22261700857806      0.36979324790529
  H   -1.37062889609309     -1.56930751168232     -0.23915868150816
