21
Coordinates from ORCA-job sli_testing_inp/doublemontecarlogen3D601
  C   -2.47322300828724     -0.95600228024019     -0.20190421230208
  C   -1.31009338279762     -1.70043487177015     -0.15264730617325
  C   -0.04708729801992     -1.07988319306982     -0.02245594676063
  C   -0.01673552211491      0.32893187342152      0.05264302063100
  C   -1.18183487546867      1.09391043241882      0.00586943901545
  C   -2.41134522339641      0.44885634353055     -0.12085387507397
  O   -3.58905775971853      1.12118265049298     -0.17200185630823
  O   1.15190989376193      1.01981868749930      0.17645646488733
  C   2.39837688455895      0.39339713643753      0.23718994420237
  O   3.37871501650338      1.08935193986731      0.34573740102834
  C   2.38221872167291     -1.06241420869604      0.16417938042850
  C   1.22795475513932     -1.76090385480215      0.04278793355958
  C   1.27901995166720     -3.27288960120321     -0.01744678271000
  F   0.73369114081661     -3.73341385652054     -1.16549778569493
  F   2.53631451614795     -3.74472554727349      0.05111464208671
  F   0.58285266982115     -3.82307544369098      1.00226339873764
  H   -3.44291982709856     -1.43055471132296     -0.30215546837884
  H   -1.36997474662595     -2.77996682207648     -0.21581110741254
  H   -1.10191160877798      2.17506511217857      0.06987943974871
  H   -3.42643653609023      2.07197123188378     -0.10598424909984
  H   3.34697623830663     -1.54906101706430      0.21479752558870
