28
Coordinates from ORCA-job leia_inp/doublemontecarlogen3D18
  C   5.16784008518252     -6.08055627230631     -3.21641060382776
  C   5.19147595971202     -4.59049573871983     -3.48862540319523
  O   4.13835643964858     -3.93559728023549     -3.53551489655051
  N   6.40859216968795     -4.02531581574333     -3.67407377590694
  C   6.65661440779089     -2.64232446375408     -4.11729327008486
  C   6.03409829343223     -2.32993829684912     -5.50726774665657
  C   6.53371188701646     -3.25206693405889     -6.59736973428402
  C   7.79992612291713     -3.06503661499930     -7.17246861683381
  C   8.28662622312559     -3.93247050460668     -8.15003761734775
  C   7.48830911536148     -4.99803904444305     -8.55345001142903
  C   6.22449255185832     -5.21146267011207     -8.01556242086563
  C   5.75629677409084     -4.33254731378742     -7.03701189332783
  F   7.95358987806923     -5.84493388456553     -9.49583186254540
  C   6.24576339052431     -1.56370769007920     -3.08531641218886
  O   7.03153897498638     -0.70538477670926     -2.75260679011114
  O   4.98599025150665     -1.59662893558591     -2.64623529156729
  H   4.60316718623158     -6.25969060118794     -2.29792771252467
  H   6.16139273709225     -6.52630393605575     -3.12432428397918
  H   4.63204003314054     -6.57565683907354     -4.03168919249891
  H   7.21453326256913     -4.63015404035061     -3.62703398125319
  H   7.74076614942748     -2.54771435192792     -4.19373659100181
  H   6.29037001153764     -1.28951878406656     -5.73825151630361
  H   4.94541628385202     -2.38609867030213     -5.43254930923746
  H   8.41428294992647     -2.22407255649206     -6.85866288045814
  H   9.26214320111746     -3.79152937407621     -8.60348407837761
  H   5.62652040811980     -6.04634738994195     -8.36580733159915
  H   4.76589870842273     -4.48309843204340     -6.61483011340017
  H   4.50900654365213     -2.39054878792632     -3.00693666264334
