17
Coordinates from ORCA-job raina_inp/doublemontecarlogen3D230
  C   0.60961781493890     -1.77505149621518      0.17635406316946
  C   -0.69351028671953     -1.35414055534638     -0.10301333807722
  C   -0.85934128207122     -0.00150147671300     -0.42260677305475
  C   0.18853977789643      0.90385265942683     -0.47087967400630
  C   1.47518828360062      0.45161772790956     -0.19652768264829
  C   1.68917668270179     -0.89956445795227      0.12917684492067
  N   3.02977306743365     -1.43493612330724      0.41961884281879
  O   3.99664851701862     -0.72879582805348      0.15024728564863
  O   3.08388926638922     -2.56279768506228      0.90510411139393
  F   2.45908422998605      1.34114970677351     -0.23667564915691
  F   -2.09848019278792      0.47967598459043     -0.70050221805250
  C   -1.78194215283675     -2.39956273396664     -0.03080813029092
  O   -1.53031261004577     -3.54322437853378      0.26492102757072
  O   -3.04262319281532     -2.01721025164326     -0.30821771548169
  H   0.77553646925033     -2.81405058084216      0.43596879732835
  H   0.01627786364777      1.94505940314601     -0.71522531332649
  H   -3.08487225558687     -1.07355991421067     -0.52583447875548
