16
Coordinates from ORCA-job sli_prashanth_inp/doublemontecarlogen3D500
  C   -1.15586829999364      1.29926212137360     -0.29480065489696
  C   0.23755054918099      1.22327405850744     -0.31100794885701
  C   0.83959977442830     -0.00560815588122     -0.06491728541145
  C   0.09359755103260     -1.15087808114723      0.19338081783048
  C   -1.29798983391701     -1.05701481014657      0.19776638383384
  C   -1.93881596623429      0.16504307972030     -0.04693361831917
  C   -3.45419903169422      0.24474689578163     -0.06672674872888
  O   -4.08436698880422     -0.67663652276143      0.81242945814081
  F   2.18773600221370     -0.08705021557059     -0.06920752261810
  H   -1.63757818895183      2.25768785226167     -0.47501645801375
  H   0.85531109569536      2.09511006988286     -0.49915807542290
  H   0.60283688824712     -2.08984772174655      0.38446556830902
  H   -1.90340109733055     -1.93519510515582      0.40047731482374
  H   -3.83366600459571     -0.01064407959068     -1.06388847427425
  H   -3.77124757423922      1.28058197228861      0.13569141701560
  H   -3.75897887503737     -0.49464135781604      1.70460582658896
