18
Coordinates from ORCA-job sli_testing_inp/doublemontecarlogen3D72
  C   1.09066287479173     -0.54657055234835      0.69705163900067
  C   0.08492445507039     -1.20144108235226     -0.00732895246262
  C   -1.04408247861808     -0.49273462468654     -0.41753376023334
  C   -1.15914162951808      0.86762378607913     -0.12408445884992
  C   -0.15399436761476      1.54537032041877      0.59499431571164
  C   0.96792300031093      0.81205849373491      0.99181242825184
  C   -0.17740714128775      3.02786065913650      0.93660090495603
  F   0.09427991423814      3.78432632957611     -0.14031139923608
  F   -1.36081972829810      3.41479771781880      1.44229837959794
  F   0.76180081907340      3.31313683075119      1.86799022710690
  S   -2.66990087961048      1.63447363132543     -0.76902917612155
  O   -2.44055145737747      3.02898178610306     -1.11060606825273
  O   -3.26551207844871      0.70406552553385     -1.72121406682147
  Cl  -3.92962292088664      1.58914263375824      0.94295630263914
  H   1.97447497125068     -1.08654345740168      1.02241931558845
  H   0.16992020773504     -2.25767878489611     -0.24235825474512
  H   -1.83548933024497     -0.98245514187792     -0.97212110156054
  H   1.74996576943474      1.31936592932688      1.54311372543075
