18
Coordinates from ORCA-job test_4_sl_inp/doublemontecarlogen3D311
  C   0.18681747653257     -1.19723224879700     -0.02242401544424
  C   -0.49012787167121      0.03506760528388     -0.05060035623958
  C   0.22942088847307      1.23720192664905     -0.02131673367702
  C   1.61727597580402      1.17263014535969      0.03580047373635
  C   2.30994151861371     -0.03222097568995      0.06712457195112
  C   1.57854533972165     -1.22203403788340      0.03706177944138
  C   2.32944227344459     -2.53436736096555      0.04486496493483
  F   2.93787036188219     -2.75044634381909     -1.13910025809657
  F   3.28940392220406     -2.53327217410623      0.99184546788374
  F   1.51202302482861     -3.57860303733914      0.28197192642235
  N   2.38532624122429      2.43604858988705      0.07240571157462
  O   1.74542973489321      3.48407962555842      0.05145809165265
  O   3.60921808812947      2.34802912426314      0.12107154453072
  C   -1.92430360613159      0.06154620477634     -0.10321230866805
  N   -3.08600654073241      0.07797632500229     -0.14534455708680
  H   -0.37546089851286     -2.12336473230351     -0.04061253835106
  H   -0.26807912418095      2.19869974823296     -0.03926653633027
  H   3.39177319547755     -0.02810838410892      0.12021277176583
