17
Coordinates from ORCA-job srijon_inp/doublemontecarlogen3D464
  C   0.12259056685482      1.53588505024495      0.08559636691419
  C   -1.24563233487113      1.29315320462552      0.07464276764689
  C   -1.73307523097233     -0.01543288450622      0.03941086565833
  C   -0.84361100797018     -1.10266084508730      0.01589543728421
  C   0.52929121238874     -0.85403105716279      0.02659416693959
  C   1.01985778258604      0.45685084728050      0.06103952582484
  N   2.38745390147408      0.66153671791517      0.07029425465911
  C   3.30903361055141      1.43139814314828      0.09547769853380
  S   4.59851573588906      2.34982211375890      0.12469060633162
  C   -1.32816407159295     -2.53815322108247     -0.02063543658143
  F   -2.06608672439301     -2.78762773313097     -1.12034210981398
  F   -0.29213435572820     -3.40520892185206     -0.03196382884792
  F   -2.08336641036155     -2.83649240187865      1.05498022441035
  Cl  -3.46751098688106     -0.24051823004385      0.02585359779904
  H   0.49983868293489      2.55298890799416      0.11299321795479
  H   -1.94685674386519      2.12004230760341      0.09346872217311
  H   1.22710637395659     -1.68143199782658      0.00839392311346
