19
Coordinates from ORCA-job sli_prashanth_inp/doublemontecarlogen3D569
  C   1.50827147171323     -1.23405803338330      0.07727863522128
  C   0.19023063258770     -1.66282912498377      0.09644106576367
  C   -0.81353042837837     -0.68628737851578      0.01672386947070
  C   -0.50972240121082      0.70548905779795     -0.08115078812578
  C   0.83787539190078      1.12043783932239     -0.09940672667329
  C   1.80430933725327      0.14001755013535     -0.02001306044669
  F   3.10808861985575      0.49918674303254     -0.03533650015873
  C   -1.75763670419573      1.39794471777462     -0.14160376782479
  C   -2.75516050007179      0.44104034416390     -0.08179408475744
  N   -2.18041678498345     -0.80875633014938      0.01294375103259
  C   -4.22794322253595      0.50319505319521     -0.09566547096080
  O   -4.91419381535285     -0.49425744290235     -0.01392524302960
  O   -4.79501027838811      1.72831368781303     -0.20248358056365
  H   2.33138402753144     -1.93792119861889      0.13618444631398
  H   -0.05174202939303     -2.71849217902424      0.17090701801479
  H   1.12327265470801      2.16434854418905     -0.17240697421637
  H   -1.88538437154094      2.47022179089889     -0.21709240653364
  H   -2.73977033074845     -1.64708252174525      0.07464307473500
  H   -4.11408126875070      2.41258888100003     -0.27081325726121
