22
Coordinates from ORCA-job raina_inp/doublemontecarlogen3D594
  C   -2.45656242550333      0.61511980287019     -0.24686120534377
  C   -1.29957952147049      1.36410955917028     -0.16645197035875
  C   -0.03823781366526      0.75129869496587      0.00442192761212
  C   -0.01227891575959     -0.65943852003149      0.08759554407080
  C   -1.16949739969871     -1.42642643165241      0.01042320359943
  C   -2.41124754350146     -0.79825856897135     -0.15914957232850
  N   -3.56691118335551     -1.54234688282574     -0.28671908235271
  O   1.15535861747390     -1.34616054217342      0.25483784379090
  C   2.39687001981238     -0.71704733386767      0.35283248835739
  O   3.37436629693685     -1.41172356514217      0.50042119629819
  C   2.38299543426032      0.73680466465906      0.26762228659352
  C   1.23053765493114      1.43294783490597      0.10471896858618
  C   1.28288382575076      2.94417230796739      0.03755029304316
  F   0.76180978359805      3.40205897345677     -1.12337440774455
  F   0.56563464889533      3.50039309490903      1.04009092296780
  F   2.53846058646743      3.41787431238807      0.13003684055762
  H   -3.41386229460938      1.11005642254841     -0.38437030753257
  H   -1.36371139350799      2.44328251401689     -0.23550113863640
  H   -1.08537093402293     -2.50616014975773      0.07990589949579
  H   -3.54252200244873     -2.49558098480913      0.04399792469412
  H   -4.44135338509630     -1.06974254467523     -0.11262268415335
  H   3.34483794451353      1.22531734204841      0.34475502878358
