24
Coordinates from ORCA-job sli_testing_inp/doublemontecarlogen3D79
  O   5.14074598506046     -4.03165169436979     -0.34067781903166
  C   4.98864176493377     -3.08981207546482      0.61153820423798
  O   5.14923760384293     -3.31687524316046      1.78818882515168
  C   4.60667138330805     -1.74688455628980      0.08027775365761
  C   4.40707346172138     -0.63505406758308      0.85192083444679
  S   3.98758869199639      0.70185579721190     -0.15103116567650
  C   4.11676596329072     -0.34284977109111     -1.57402199582492
  N   4.44092484201038     -1.57422315030937     -1.27338301126855
  C   3.87094418841885      0.14103214633746     -2.93943797919763
  C   3.68677457597802      1.50228817345376     -3.22642289257048
  C   3.46122442220426      1.92550666374758     -4.53566679805808
  C   3.41613192323316      0.99917005787648     -5.57536444784294
  C   3.59836754259043     -0.36042093099422     -5.29494766075820
  C   3.82413136461044     -0.78997355378223     -3.99132533449965
  C   3.50035877417866     -1.35919021729219     -6.42026041430077
  F   4.20677283412194     -0.95707156865519     -7.50032701675228
  F   3.95865305263478     -2.57662520600765     -6.06286263761398
  F   2.21944584883112     -1.51382478965954     -6.82681611140759
  H   4.96345364927890     -3.61498200950133     -1.20415753572354
  H   4.48734895647244     -0.55833869076768      1.92650067691292
  H   3.72958577862755      2.24028810032727     -2.43004945777700
  H   3.32605247050476      2.98218188405922     -4.74428563126477
  H   3.24797761587432      1.32480249672818     -6.59682247681186
  H   3.96691730627617     -1.84160779481338     -3.77710590802645
