31
Coordinates from ORCA-job test_7_sl_inp/doublemontecarlogen3D36
  O   1.40352474494635     -0.19227200024044     -0.36263347754362
  C   2.76428299420097     -0.18636660643913     -0.30637224882220
  O   3.37270510280200     -1.20214954505399     -0.54059947531698
  C   3.40203247298481      1.15847522158100      0.05967370589494
  C   3.13341858035801      2.23038045797774     -1.02958039496415
  C   3.96533654444911      1.98108876890997     -2.29583853403121
  N   5.38341795593056      1.88373158115400     -1.96012525716177
  C   5.71857750147963      0.83871200993184     -0.98901054999635
  C   4.91628855550792      1.02349167842047      0.30792384324878
  C   6.33307170290671      2.63696431568304     -2.58731125313724
  N   7.62800784257724      2.43659528891573     -2.23323972218272
  C   8.53535913359399      3.17975747082639     -2.85490693224570
  C   8.21924865771270      4.12945126940163     -3.83145479158573
  C   6.86191168335711      4.24980340058515     -4.10966363914214
  N   5.91637997543551      3.53182807964760     -3.51219365830166
  C   6.35253850626411      5.24044267605572     -5.14362244050653
  F   5.56569532543089      6.17530778809079     -4.57587266824566
  F   7.37235483830032      5.88286070068943     -5.75487122485539
  F   5.63047722361482      4.62117634850024     -6.09536660019886
  H   1.05153426324558      0.67596361455136     -0.11952412263543
  H   2.91777128336464      1.48656115631778      0.99151989045805
  H   3.39283967316419      3.21370270942048     -0.62112877670895
  H   2.07122293169644      2.26761980587890     -1.30195277452518
  H   3.83268998227572      2.78970123757492     -3.01272502891056
  H   3.64490778096697      1.04436111826093     -2.77695655139956
  H   6.78783722931336      0.88673902290233     -0.79153252382192
  H   5.48693978647723     -0.14175834980587     -1.42206069863228
  H   5.26349319001419      1.93044281461770      0.81724394715000
  H   5.11140467623924      0.17364663036937      0.96877448329102
  H   9.57159045340291      3.01122638071804     -2.56346523311548
  H   8.97060940798660      4.72285495455681     -4.33361729205545
