21
Coordinates from ORCA-job sli_prashanth_inp/doublemontecarlogen3D524
  C   2.44922663584611      4.36297239735725      1.92359936614649
  C   3.03636010187432      4.31553474515161      0.66176422662914
  C   2.25177637122380      3.93671533553977     -0.42897947153676
  C   0.90405988451596      3.60509576839144     -0.29761934696437
  C   0.31508139043831      3.66422291599168      0.96207780992722
  C   1.09870458129778      4.04156772041522      2.05173172512576
  N   0.47503362483034      4.10863820816496      3.38566269326411
  O   1.18989126160363      4.43849224678829      4.33039039183025
  O   -0.72075104271366      3.83256029366626      3.46771284297099
  O   2.78824836067858      3.95605002179064     -1.72601975886379
  S   3.94052160661392      2.82655009612456     -2.10798297554356
  O   5.23148790647306      3.22621390827129     -1.56901864104671
  O   3.40583228030260      1.48801556294770     -1.91680201699021
  C   3.90508940044080      3.24959239121687     -3.93088100998154
  F   4.19604639678992      4.53444016946485     -4.09804693176497
  F   4.82361791294264      2.49265168805023     -4.52577812402883
  F   2.70266388060585      2.98313555300740     -4.42832076313169
  H   3.01415593203608      4.65264819883750      2.80073293559984
  H   4.07954566732079      4.57248845056930      0.51843525463009
  H   0.33622328083096      3.31317449215308     -1.17371465168753
  H   -0.72927543395180      3.42194983610002      1.11371644541607
