22
Coordinates from ORCA-job sd_inp/doublemontecarlogen3D412
  C   0.63528775440641     -0.12117066075339     -0.44730629762640
  C   0.28385097625983     -1.46867102901747     -0.44053128281813
  C   -0.96860316149521     -1.85421891380741      0.04376005791100
  C   -1.86354918974511     -0.88864337934504      0.51154951050205
  C   -1.50751452290364      0.45915236116372      0.50663598567919
  C   -0.25152773812406      0.85658833947607      0.02904775565830
  C   0.24147718441996      2.29257975118578      0.06803560158196
  C   -0.83906947660714      3.35910874683442      0.35390524530790
  O   -1.90965486164626      3.38547905955767     -0.20464105789457
  O   -0.45273100285627      4.28358324920900      1.24545723413942
  O   1.33584192516762      2.44660614670326      0.99725992632293
  C   -1.35094976056604     -3.31016246032694      0.11049380000586
  F   -2.63906637072576     -3.50354425059714     -0.24864157869678
  F   -0.58157771007362     -4.07568654650016     -0.69343212740625
  F   -1.21902601460411     -3.79586210568532      1.36739370077847
  H   1.61039710040294      0.17792274320792     -0.82232618057820
  H   0.97237236855196     -2.21733232461204     -0.81643366380868
  H   -2.84308219216828     -1.18780876706591      0.87031683023073
  H   -2.22154360009826      1.20292541178711      0.84009044492624
  H   0.66034083995504      2.55244584103753     -0.91247886074011
  H   0.44759177554674      4.02393546530485      1.53003443973435
  H   1.21581567690327      1.79267332224348      1.70124051679072
