14
Coordinates from ORCA-job leia_inp/doublemontecarlogen3D188
  C   -1.93884313687253     -0.03444525264545     -0.07330089768472
  C   -1.29023367617339      1.20129148419404      0.01407641401478
  C   0.10039145429092      1.26129465888847      0.07200011616482
  C   0.83514056779834      0.08103879788222      0.04396772726430
  C   0.21133995878308     -1.18065178610158     -0.04485493979163
  C   -1.19429331481070     -1.20806836422562     -0.10352863258804
  C   1.05368067042441     -2.39824545562276     -0.06457428070314
  O   2.23858428039082     -2.46123971123173      0.03855928727325
  Cl  0.11479945762310     -3.97395693857789     -0.27956574475639
  F   2.16705260989008      0.17862499016333      0.09859983088064
  H   -3.02190114793222     -0.08204050773810     -0.11823704232689
  H   -1.86698321860433      2.12125132452746      0.03653056718690
  H   0.63363996140281      2.20335533354606      0.13870930859318
  H   -1.69192446621039     -2.16719857305845     -0.17202171352705
