16
Coordinates from ORCA-job test_5_sl_inp/doublemontecarlogen3D325
  C   -1.33484053322738     -1.01446057119676      0.04649611936679
  C   -0.14391356691661     -1.74842044563261      0.06230635865810
  C   1.09688658704089     -1.09806634718588      0.05826061120992
  C   1.10686332764303      0.28715789903110      0.01252730447038
  C   -0.05915369601287      1.04817625495312     -0.01637709916022
  C   -1.29004490675444      0.38499013531296      0.00833229346951
  O   -2.48172082804424      1.04319949944000      0.00112844676643
  F   2.28713071826328      0.93444814355278     -0.00491404184806
  C   -0.12652610232339     -3.25157923816553      0.11413331889666
  O   0.82752689135417     -3.88759671526589      0.49383184897721
  O   -1.25415909109646     -3.88878832065941     -0.29598132674016
  H   -2.31064103683275     -1.48582956727035      0.11237207173348
  H   2.01674825011448     -1.66837545875534      0.09155487804355
  H   0.00844848196134      2.13166496988410     -0.04979010788442
  H   -2.32842936914417      1.99719490887608     -0.00277845384545
  H   -1.85646512602487     -3.26178514691838     -0.72053222211370
