16
Coordinates from ORCA-job sli_testing_inp/doublemontecarlogen3D604
  C   -1.14848249638014      1.25491217409582      0.00244338061070
  C   -1.90411679814044      0.07783467387811     -0.00726983558886
  C   -1.24235133968682     -1.14881214485173     -0.00935126128284
  C   0.15547445869845     -1.21006752957988     -0.00191710814980
  C   0.89788520352086     -0.02819764248795      0.00731882656262
  C   0.24148281481391      1.21108639660243      0.00955856585655
  O   2.26156933283129     -0.01320052268589      0.01473654501553
  C   -2.00708074855030     -2.44578317912885     -0.02197506101386
  F   -1.71021037045268     -3.18573961654445     -1.11728326067590
  F   -1.69971763074982     -3.21273233347428      1.05152300064027
  F   -3.34278089030573     -2.25694371157630     -0.01338461119918
  H   -1.65240737441614      2.21699881083927      0.00455250811691
  H   -2.98692215444947      0.11160947199879     -0.01257143335550
  H   0.65744345542212     -2.17474032209104     -0.00282132254603
  H   0.83742481258434      2.11789125409302      0.01704121326179
  H   2.59311972526054     -0.92086577908706      0.01172985374761
