17
Coordinates from ORCA-job test_4_sl_inp/doublemontecarlogen3D290
  O   2.07280191792946      0.04969500687881     -2.89065533211588
  C   3.21818952312771      0.74371418870488     -2.78544040091187
  O   3.49444752769302      1.57004576647961     -3.63248599941074
  C   4.08456390478584      0.42719134144174     -1.57529557911682
  C   5.26544858169161      1.40461030145337     -1.38572611177711
  C   5.72214315712744      1.38212016202916      0.07189756028862
  F   4.69532789332673      1.78465064810075      0.87084516994751
  F   6.07216796047173      0.15007630105809      0.47977241813290
  F   6.74529771060021      2.21746111126460      0.28832211174248
  C   6.44323838089268      1.11227534822454     -2.34511041202043
  O   7.49215704007961      0.64823059873757     -1.97324425039148
  O   6.20720883256619      1.40685745394687     -3.63032379447994
  H   1.96341986392709     -0.56112154247993     -2.14698212865285
  H   4.44764017273572     -0.60530538656258     -1.65530072467506
  H   3.44647887374607      0.46812469695967     -0.68435936809130
  H   4.90803334448511      2.42308394507172     -1.57473906408506
  H   5.27703531481371      1.69666005869111     -3.75877409438296
