32
Coordinates from ORCA-job test_2_sl_inp/doublemontecarlogen3D27
  C   1.73878661231481      1.13697731341952      4.53439213028508
  N   2.03308240054904      0.26963277171824      3.39599052593046
  C   2.26591754601461     -1.09506977547197      3.44632340217668
  C   2.58472099042537     -1.45638110063079      2.15342338280102
  N   2.53231873018016     -0.37837247891274      1.31204336497944
  C   2.20471085531417      0.64415627598851      2.08591805328419
  S   1.98228808748374      2.30648333830126      1.52251732887013
  C   3.68198909150958      2.66771204040830      0.95636671644694
  C   4.70368336959875      2.91480030033559      2.07225493026686
  O   4.41770465445454      2.77180947837170      3.25036222259074
  C   6.08223560194164      3.33563618749405      1.66720604552311
  C   6.48781063574418      3.46356341458581      0.32783344272360
  C   7.78306034707376      3.86749060707532      0.01128830722649
  C   8.66693957257445      4.14474261446657      1.04963533210590
  C   8.30091449998730      4.02503420253048      2.38889092102233
  C   7.00681188753816      3.61799320977289      2.68857968630302
  F   9.91629287462941      4.54215950368395      0.75046372049430
  C   2.18057652829034     -1.91050004418089      4.69454334140156
  O   3.12487220748372     -1.52693076706729      5.70001676114268
  H   2.14744809390385      0.67021791498191      5.43124094803620
  H   0.65958878636199      1.28142488879421      4.65097884501764
  H   2.22378300574393      2.09939364775361      4.36935372958598
  H   2.83252751004652     -2.44614281550157      1.79090998391083
  H   3.60646158151114      3.55201423379337      0.31435470172304
  H   4.01095536851764      1.83377239452340      0.32709492246216
  H   5.79954647234598      3.24452521792629     -0.48171107235498
  H   8.11440438192996      3.97009813338745     -1.01633372479925
  H   9.02551101578269      4.25055923531313      3.16407775847490
  H   6.68097121591025      3.51230783756089      3.71778225330761
  H   2.29620648750345     -2.96841765020359      4.41687486422760
  H   1.20085527633230     -1.80895236851092      5.17552238722718
  H   3.99442431100238     -1.49728776170677      5.27743478760645
