19
Coordinates from ORCA-job sli_prashanth_inp/doublemontecarlogen3D511
  C   2.96934381148083      2.12060471911154      2.01020266820993
  C   3.94929350030227      2.98585412716415      2.50819567442376
  C   3.57277511969449      4.04983609027587      3.31488811169952
  C   2.23831575087975      4.28075657494647      3.64082656303220
  C   1.26366079584056      3.42081006010177      3.14564206306841
  C   1.62692859379964      2.34053393791330      2.33132162279054
  O   0.59026957872711      1.54638655739333      1.89181584607740
  C   0.87245787926813      0.42631922188536      1.06370252848617
  C   -0.43949987511905     -0.28941859481449      0.73203245758114
  O   -0.45723999719381     -1.26493196278036      0.02468814306978
  O   -1.54389997166460      0.24113714166842      1.28168552116127
  F   4.51956436278686      4.88292986159270      3.79645935869639
  H   3.26880653339766      1.29126854661052      1.38047980566758
  H   4.99727460426265      2.83538545316386      2.27235562099187
  H   1.97760822029409      5.12262876320510      4.27309574053316
  H   0.21554134287279      3.57388418177878      3.38145904075212
  H   1.53487141972413     -0.28950853353120      1.56712132409384
  H   1.34480754818155      0.73087604088448      0.12124014136322
  H   -1.27558921753505      1.01825781343041      1.80384776830168
