20
Coordinates from ORCA-job test_4_sl_inp/doublemontecarlogen3D294
  C   -1.55510046670477     -0.22416958610280     -0.03876858288004
  C   -0.76712025050266      0.93317468696188     -0.06610683799052
  C   0.62757296037415      0.83966334839270     -0.05707890591609
  C   1.26687142631294     -0.41427664666578     -0.03595879761118
  C   0.46818857007924     -1.56809431164439     -0.03801884026746
  C   -0.92399144214547     -1.46468942390422     -0.03643512114722
  C   -1.72634832162423     -2.74119399994163     -0.02754176783987
  F   -1.44973721150161     -3.50053567288663     -1.11356624127999
  F   -1.43273548459184     -3.49719179958026      1.05649425685141
  F   -3.05381157170670     -2.51400669273364     -0.01755660195504
  N   2.65303034870517     -0.50735451868785     -0.06489398058840
  C   -1.47827958146740      2.25660688564994     -0.06818603033767
  O   -2.59542718556255      2.41015022465643      0.36349713414143
  O   -0.79496111088648      3.31140244861336     -0.59116431226641
  H   -2.63361361625326     -0.13517174086422     -0.02146572018034
  H   1.24166490292254      1.73727376682470     -0.02123858044312
  H   0.93700762319663     -2.54817647250553     -0.03336926802033
  H   3.16042102082936      0.29779571633950      0.27396125284280
  H   3.04449586753825     -1.37807218632041      0.26549997119749
  H   -0.01094647701130      2.99543597439886     -1.06212302630944
