18
Coordinates from ORCA-job ewa_inp/doublemontecarlogen3D165
  C   3.17209855747408      0.08794424109263     -0.04271420456188
  C   1.66250254068425      0.03374685045728     -0.00660924118968
  C   0.97884822759960     -1.17975785998361     -0.12260281759216
  C   -0.42458231916390     -1.25265940932938     -0.13691914866593
  C   -1.14156655444493     -0.05542457257421     -0.03003781416039
  C   -0.49251398996955      1.16645581797677      0.10911936935860
  C   0.90005824260803      1.20484344614416      0.11773434837326
  F   -2.48212404471807     -0.07118496236778     -0.02019394806966
  C   -1.13392677904787     -2.56233424716085     -0.31778998293000
  O   -2.14418218610216     -2.70973292658381     -0.95760624671376
  O   -0.53430464955553     -3.63283642503531      0.27890003427050
  H   3.61456077194970     -0.88055482339333      0.20810258025305
  H   3.56174202504878      0.82951186623293      0.66202163436758
  H   3.53552988930528      0.36538767657320     -1.03995562320856
  H   1.55278238958833     -2.09583650455266     -0.24533440694477
  H   -1.08775414778347      2.06763371989604      0.21158582533124
  H   1.40265440926690      2.16303450742142      0.22228077117757
  H   0.16253761726053     -3.32699639481349      0.87676887090497
