14
Coordinates from ORCA-job srijon_inp/doublemontecarlogen3D467
  C   -0.73757415876047      1.18461741367557      0.00333056335146
  C   -1.37655787372361     -0.05465967406422      0.00151011593378
  C   -0.61002637901789     -1.21388839658305     -0.00561215162329
  C   0.77845796423664     -1.15931776706930     -0.01158471019079
  C   1.41144122667529      0.08263596479670     -0.00964438853556
  C   0.66528921104353      1.27395354602099     -0.00197802276951
  N   1.30531522864240      2.51938253688914      0.06280478295523
  F   -1.22640777476217     -2.42064172749060     -0.01017945303900
  H   -1.33286658451475      2.09446106208566      0.01374625974585
  H   -2.45928296187735     -0.12691593602720      0.00347227210233
  H   1.35103669612269     -2.08097067744859     -0.01975016785561
  H   2.49766308217121      0.13034126131544     -0.00933907218882
  H   2.24478292701483      2.52812547018168     -0.31187835753623
  H   0.76179939674964      3.29040692371778     -0.30210767034981
