18
Coordinates from ORCA-job leia_inp/doublemontecarlogen3D194
  C   -2.17011223725539     -0.03708852418830      0.17644161384747
  C   -1.48655525699269      1.18062675315937      0.17495096175962
  C   -0.09006194368184      1.17933652968029      0.17295392663608
  C   0.58420199992509     -0.02995306609938      0.17295006584981
  C   -0.06391743408583     -1.27445891833752      0.19306398233160
  C   -1.47035847995577     -1.24232688078819      0.19704004484428
  N   0.63743998484632     -2.48441773065957      0.14423801734335
  N   1.78206136865087     -2.69431275526353      0.96217882595770
  F   1.95861865348121     -0.00739455383345      0.12531273666446
  Cl  3.52834479968616      1.78914615884913     -2.12118366260501
  H   -3.25643345611485     -0.05194513475892      0.17881638887339
  H   -2.02725876645088      2.12127826149569      0.17068402423617
  H   0.48374269207202      2.10044883503161      0.15832719361783
  H   -2.01045837758342     -2.18606168422100      0.21669799956340
  H   0.02895426916304     -3.29158313833850      0.19834626564403
  H   1.66795819439216     -2.21726418658355      1.85910804556944
  H   2.57861641910542     -2.26814545714049      0.49790383421899
  H   2.91674757079835      1.02495549199634     -1.27713026435261
