16
Coordinates from ORCA-job ewa_inp/doublemontecarlogen3D161
  C   -0.84222726858469      1.27078545731773      0.01463254993915
  C   0.53850092747728      1.24562734315653      0.18136370038322
  C   1.19076086166113      0.02206410071444      0.25122367993870
  C   0.51386485698006     -1.19541799591497      0.15939764261837
  C   -0.87780876077800     -1.14884046886288     -0.00829188071425
  C   -1.55629533290041      0.06674166570385     -0.08012481772775
  O   -2.90684565472228      0.15365192275758     -0.24152685014625
  C   1.14360957716522     -2.56434943229280      0.22316690739808
  O   0.48036040465688     -3.57293332209324      0.13193598945097
  O   2.47924443534980     -2.63345593696912      0.38679178586252
  F   2.55196136543969      0.03876213666566      0.41775186442335
  H   -1.38019521730172      2.21091670410510     -0.04362977563871
  H   1.11561124529374      2.16076589994375      0.25781417493219
  H   -1.40003953644513     -2.09907361027724     -0.07896845993182
  H   -3.28212925702947     -0.73544400532996     -0.29378731246910
  H   2.86171735373790     -1.74287045862443      0.44254080168131
