30
Coordinates from ORCA-job sli_prashanth_inp/doublemontecarlogen3D50
  C   -0.35460579233084     -2.80375619466982      1.72232040313924
  C   -0.82101559512020     -1.39422736761562      2.13286255012482
  Si  -1.01157754998362     -0.15083928526037      0.73135971812141
  C   -2.05254769409984     -0.77962654459321     -0.70786132627773
  C   -3.52048348029225     -1.07875447326649     -0.34216114416735
  C   -1.54351704285915      1.53876586712826      1.37449407882121
  C   -1.58080478532194      2.67180732018352      0.32988803001203
  O   0.55049568757489      0.03362927023360     -0.06812014074753
  S   1.87039009065976      0.72879765914169      0.47998208534506
  O   2.14640888906027      1.94306600916916     -0.27303755221752
  O   1.88875975568837      0.72231613046295      1.94024542855487
  C   3.09490415974772     -0.55208182999997     -0.10232961648553
  F   3.05383983021596     -0.65600499357508     -1.42836619307503
  F   4.30971461598617     -0.16151290170637      0.28189154550830
  F   2.81891977861826     -1.73905988336677      0.44650001733024
  H   -0.26676833351649     -3.45919719020241      2.59553773099940
  H   0.62448903051501     -2.77304381434884      1.23565387416353
  H   -1.05617200559308     -3.27789415054775      1.02706546430776
  H   -0.12204336154623     -0.96334085382014      2.86023950286494
  H   -1.79061835201148     -1.45381705068225      2.64855983688972
  H   -1.57396051944024     -1.68109670002445     -1.11132215329040
  H   -2.00805205139160     -0.03482812680495     -1.51240014717619
  H   -3.59762424633815     -1.84517565121660      0.43721105965893
  H   -4.07761781309845     -1.44331402045042     -1.21171511264959
  H   -4.03900992662676     -0.18513250658041      0.02293378103711
  H   -0.87308284520769      1.80951102304225      2.20055334152922
  H   -2.53660480207453      1.41266250254156      1.82988237767876
  H   -0.59498357992770      2.83984521584619     -0.11446447351858
  H   -1.90226536040136      3.61449123904231      0.78549170256726
  H   -2.27839670088477      2.44864130194042     -0.48505466904838
