18
Coordinates from ORCA-job sli_prashanth_inp/doublemontecarlogen3D518
  O   2.29391160183828      1.63459772129604      1.66559179052062
  C   1.92309165282799      0.33073939149369      1.62791304605222
  O   0.81415685434142      0.02061183112405      1.26569343487462
  C   2.94680752642575     -0.68588570518989      2.05982361192065
  C   2.74679970011675     -2.01037279429535      1.64500428228067
  C   3.64549598955874     -3.00625000216208      2.01290432998632
  C   4.73608144983504     -2.66145937800936      2.81602907993495
  C   4.95090179795300     -1.35435934732966      3.25341496053714
  C   4.04658625712545     -0.36614460583583      2.86889204550960
  S   5.89334046235666     -3.92846938743446      3.29282853273970
  F   5.18295303681286     -4.41932050197731      4.66518010701976
  O   5.80703623265998     -5.04557462388781      2.37225360486165
  O   7.15350641678459     -3.33018334914055      3.69089343320440
  H   3.24681581736378      1.71970818070052      1.80806243863976
  H   1.88034252570348     -2.23593812399421      1.03309771980916
  H   3.51683737683162     -4.03008093809418      1.67925052381890
  H   5.80945353345622     -1.12057477458166      3.87307036196977
  H   4.19421176800828      0.64454640731812      3.24035669632001
