15
Coordinates from ORCA-job raina_inp/doublemontecarlogen3D580
  C   1.76324283438238      0.15666752762565     -0.02915899917492
  C   0.92408349945978      1.26351695781269      0.00395949205053
  N   -0.40994999666900      1.16772277824835      0.04142845941978
  C   -0.92028338475129     -0.06781343418351      0.05543521501515
  C   -0.06675154741921     -1.20308114913568      0.01880610894515
  N   1.24985727825303     -1.08857080277121     -0.02489163877286
  N   -2.28250440741639     -0.19369765757873      0.14506546931513
  C   1.47132736098290      2.67573295810102     -0.01408376848173
  F   1.05710088517561      3.34725466000890     -1.10681473510142
  F   1.07102817268047      3.37235595469673      1.06642638490800
  F   2.82312014828460      2.67668247004365     -0.02356169757924
  H   2.84212006193257      0.25643243159294     -0.06191107334076
  H   -0.48410021157811     -2.20964941655988      0.02657337268691
  H   -2.81434588646516      0.64670624048481     -0.02923658184644
  H   -2.70929480685217     -1.06105951838574     -0.14054600804329
