23
Coordinates from ORCA-job sd_inp/doublemontecarlogen3D375
  C   1.36517824489395      0.10014122067867     -0.35148652518983
  C   0.57135783759463     -1.03652458033804     -0.53287390840134
  C   -0.81757392684343     -0.91833827119426     -0.40465042103542
  C   -1.39953898121237      0.30997392784462     -0.08907518452018
  C   -0.60382246631957      1.44170797252457      0.10014746225757
  C   0.77913228071439      1.32877793303833     -0.03512845468483
  C   1.64097322483879      2.55830743937458      0.10057990036714
  F   1.77929186580002      3.19744795346140     -1.08422790707373
  F   1.11140875832889      3.45038763347883      0.96740199568512
  F   2.88359381441850      2.25704631528535      0.53389641050842
  C   -2.89379741030434      0.45394686231626      0.04107159763014
  F   -3.37897586869804      1.35783118809959     -0.84128121178280
  F   -3.54336335530027     -0.70943955989554     -0.17602065904142
  F   -3.24404218267082      0.88917214472016      1.27262301678420
  C   1.20459101363168     -2.38463183843188     -0.83341576953468
  N   2.43162526562190     -2.24482830913319     -1.61866262744011
  H   2.43998506528703      0.01137867511634     -0.46410824985025
  H   -1.45250247469665     -1.78622430874911     -0.55299723825894
  H   -1.05459974582430      2.39591453141172      0.34963679604791
  H   0.43947596085666     -3.03699177977766     -1.28859488938665
  H   1.47981694276857     -2.86073551777078      0.11793880199579
  H   2.21082678052961     -1.96756748676684     -2.57211164993489
  H   2.91758935658516     -3.13533214529312     -1.67272128514122
