14
Coordinates from ORCA-job raina_inp/doublemontecarlogen3D235
  C   -0.07507120652723      1.63307022474228     -0.08491036291693
  C   1.27898380437581      1.29721308416161      0.03226122074524
  C   1.65926526874250     -0.04987946306512      0.12789671471934
  C   0.69027220536462     -1.05158998277065      0.10325734875233
  C   -0.64693464207215     -0.70544368476785     -0.01651472267367
  C   -1.03125093722975      0.63742730403164     -0.10951633938396
  F   -2.33216657168742      0.93543404358662     -0.22309776302077
  F   -1.58650153453524     -1.65266089399590     -0.04456626464810
  F   2.92956992201849     -0.42956775038416      0.24770638581561
  N   2.25273147772039      2.39678890818961      0.04636570684314
  O   1.80117190142014      3.54141706736756     -0.00968675532137
  O   3.44457253346147      2.11123375269141      0.10966400919279
  H   -0.35704110312182      2.67591362133784     -0.15534995758046
  H   0.98606888207018     -2.09130623112489      0.17720077947681
