27
Coordinates from ORCA-job test_5_sl_inp/doublemontecarlogen3D320
  C   -0.92656961101522      0.90204544044984      0.48588880187850
  C   0.56516793794386      1.20550247954691      0.35560711600273
  O   1.34221604152826      0.01512130225153      0.40457269301701
  C   0.96644812968284     -0.88055381202948     -0.63396191189436
  C   -0.51195051256375     -1.25419301738233     -0.53969402436371
  N   -1.31951162743527     -0.02564141116698     -0.58555753281943
  C   -2.72864849060485     -0.23968923726531     -0.71520035131000
  C   -3.52429375529879     -0.83410375373506      0.27350155183818
  C   -4.88799803450888     -1.04348520616462      0.13264246118185
  C   -5.52890107236111     -0.64857531590539     -1.05405681070497
  C   -4.75751919974085     -0.04878941715750     -2.06617116354533
  C   -3.39098699380651      0.14632065720688     -1.88742578011463
  N   -6.90766344314768     -0.79733164578563     -1.19690386927744
  F   -2.94112874442704     -1.23271890564063      1.43122526315914
  H   -1.50361501291302      1.82729495600408      0.37815982484682
  H   -1.12749044914129      0.48793967614098      1.48792839940013
  H   0.90555757090323      1.83385403777596      1.18469922102601
  H   0.74776834737503      1.73889228430520     -0.59222120351163
  H   1.59706902129941     -1.76844920691416     -0.52323313435028
  H   1.16569367595956     -0.42492836012787     -1.61847540866035
  H   -0.68493093537808     -1.82850716176017      0.38609248071643
  H   -0.78834954480935     -1.88773734510985     -1.38992185051460
  H   -5.43672270633937     -1.50681478187830      0.94705579727398
  H   -5.23614259208852      0.26799041313068     -2.98922001918245
  H   -2.79451326675614      0.60862212408868     -2.66836808097685
  H   -7.32935959313044     -1.51908487753059     -0.62912001913960
  H   -7.24262513922601     -0.81839991534688     -2.15003244997515
