22
Coordinates from ORCA-job sd_inp/doublemontecarlogen3D415
  C   0.51923335327445      0.13750083568056     -0.79897620693899
  C   -0.11313730950299     -1.10249425893078     -0.82844692509937
  C   -1.00197949557135     -1.45703443734563      0.19070009637844
  C   -1.26401472390407     -0.56340350767039      1.23144549826684
  C   -0.63599009818518      0.68108967584323      1.25383391529748
  C   0.26559489124476      1.03652037509909      0.24447775475327
  C   0.95786943437311      2.39207954129100      0.25403065514361
  C   0.30028142949915      3.34234490591274     -0.77333290550474
  O   0.33939366203297      3.12011150622628     -1.95758137916722
  O   -0.30963528835447      4.41313839585874     -0.24462467786160
  O   0.91154832829028      3.04646390978383      1.51858768972371
  C   -1.71874245766933     -2.78023669201450      0.15115996136315
  F   -2.95809024101128     -2.66146662221635     -0.37836389368874
  F   -1.05542773827271     -3.69141746137027     -0.59294488150814
  F   -1.87282509038822     -3.29965409291990      1.39091906244696
  H   1.20236944455303      0.41780720009023     -1.59440857670701
  H   0.08987989169700     -1.79995179072182     -1.63370939682163
  H   -1.95327240196203     -0.84129658679341      2.02215180995258
  H   -0.84900194986029      1.37978092691106      2.05653071943241
  H   1.99717526632133      2.26956405265003     -0.08112444760160
  H   -0.17033163293417      4.38810338993770      0.72018194959829
  H   1.27618272633004      2.46309073469855      2.19679417854228
