32
Coordinates from ORCA-job test_4_sl_inp/doublemontecarlogen3D295
  N   -1.62461601752940      2.62197402777930      1.41692022568145
  C   -0.87948654233341      1.57679244569754      0.97528052952368
  C   -1.33380751161937      0.25623820273033      1.00620682961772
  S   -0.17692820455059     -0.89685559526053      0.32360981000050
  C   0.95359268139494      0.40120802451659      0.00427465789713
  N   2.13101627949695      0.14734951349713     -0.55020474583512
  C   2.94542993138827      1.18465210690247     -0.78912636292513
  C   2.54024249995564      2.50778911941889     -0.49194152411029
  C   1.30626519286059      2.76050861277169      0.08578471953752
  C   0.44766168487359      1.67347687872757      0.38199789611406
  C   0.91207849854261      4.19918686062196      0.32996305043274
  F   -0.20290909652099      4.53104349626526     -0.34889721671957
  F   0.65171929223190      4.42201773565274      1.65041474870589
  F   1.87634195639133      5.06638951035509     -0.02441193873364
  C   4.26276176320108      0.88390757243097     -1.40085572563006
  C   4.46756339082563     -0.35479071471096     -2.03419080572205
  C   5.69159608010443     -0.65516936413641     -2.62560819843160
  C   6.73746304561192      0.27118554812793     -2.58985492835195
  C   6.55053036361825      1.49943547291623     -1.95274633246620
  C   5.32443881838000      1.80435651420369     -1.36389717168901
  C   -2.61083467374851     -0.13733631732793      1.58898227459380
  O   -2.93505116221667     -1.45693293120822      1.61978957906293
  O   -3.40491685365356      0.66664139978144      2.06005274235647
  H   -2.49273223933605      2.35433208344440      1.87302987527869
  H   -1.17279436371644      3.47869950561229      1.68853768506201
  H   3.18115553397421      3.34135870416563     -0.74264322099487
  H   3.65179179775730     -1.06869108163756     -2.05510209912645
  H   5.82996558714491     -1.61360444850911     -3.11795903774959
  H   7.69249473857780      0.03571186053056     -3.05093784435178
  H   7.36211803402121      2.22004041573185     -1.90816269658096
  H   5.20938939568177      2.75504643804527     -0.85278221352035
  H   -2.23803990080935     -2.01057159713613      1.23961743907406
