18
Coordinates from ORCA-job ewa_inp/doublemontecarlogen3D152
  C   -2.19837478013668     -0.11510896398503     -0.48478366779110
  C   -1.67431874477106      1.17406776219605     -0.45281827455673
  C   -0.37947184969626      1.42720924780654      0.02126136781197
  C   0.35907300211942      0.32339428735071      0.46177101329668
  C   -0.12951635113973     -0.97157815563235      0.44439454254503
  C   -1.42319458176691     -1.18717854666736     -0.03693802454121
  C   -1.95064352715732     -2.60118630258443     -0.05881766640000
  F   -1.16247518885647     -3.40184166119203     -0.80990388608391
  F   -1.97635933986192     -3.12980361818182      1.18426501328400
  F   -3.19917442323547     -2.66939900582645     -0.55927897103466
  F   1.62730117408247      0.50174000625847      0.93648759399912
  C   0.09185531317438      2.86278077200480      0.00694523602850
  O   -0.61880014715796      3.75232415690198     -0.40004006102624
  O   1.33187933495600      3.12449271432757      0.46219131074327
  H   -3.20109318933260     -0.29102266624823     -0.85564716845920
  H   -2.25126909462800      2.02596117222166     -0.79581829830630
  H   0.49345939244640     -1.78492947620684      0.79920571869257
  H   1.77259300096171      2.31022827745675      0.75179422179820
