15
Coordinates from ORCA-job test_4_sl_inp/doublemontecarlogen3D292
  C   -1.40736020415989     -0.10625066244987     -0.01950193955940
  C   -0.76627456957395      1.13252624871374     -0.01077001572440
  C   0.61658967322653      1.18128500216452     -0.01273073276714
  C   1.42795957609784      0.03225533830337     -0.02235066606708
  C   0.77447496516614     -1.20594901754486     -0.03385438975473
  C   -0.62916277101826     -1.27449658834541     -0.03378824316981
  C   -1.26781258726442     -2.55914271115080     -0.05106787401512
  N   -1.78406553429602     -3.60165045126513     -0.07811694364667
  N   2.80676507348276      0.16077647645713      0.03355510285381
  F   1.24802875131012      2.38062577336366     -0.01892300373722
  H   -2.48909622254559     -0.17084626445621     -0.01913187813200
  H   -1.32438143613677      2.06257895533624     -0.00619265289514
  H   1.35681406057004     -2.12206290994519     -0.03880775549795
  H   3.16485170851449      1.06437712535953     -0.24037168488648
  H   3.34207951662697     -0.61530631454071     -0.32749732300068
