17
Coordinates from ORCA-job srijon_inp/doublemontecarlogen3D446
  C   0.12303339525592     -1.20417335179446      0.01425105495126
  C   -1.25521840576663     -1.20092302810719     -0.15907480604000
  C   -1.99409432687382     -0.00227118871118     -0.17053411185682
  C   -1.28139039507891      1.20965754801959     -0.00159437741420
  C   0.10448195843695      1.20470061350531      0.17395297201548
  C   0.80242963103821      0.00306198132967      0.18336810378343
  Cl  2.54570377088061      0.00591800718575      0.41084082027831
  C   -2.01149770956447      2.52143783898794     -0.03669979455609
  F   -2.58065879520520      2.75734225808436     -1.24124488587132
  F   -3.03567628313668      2.54844418123408      0.86948013044305
  F   -1.21545052059406      3.56959374709242      0.24490043765231
  N   -3.36032757245568     -0.02962544101121     -0.39341587127249
  H   0.66930484242792     -2.14136680348870      0.02363458259260
  H   -1.77920446466108     -2.14424277099469     -0.28954678725715
  H   0.62907514430166      2.14298204783263      0.30472969137830
  H   -3.81207988467126     -0.91920482363326     -0.24046100942828
  H   -3.89555038433347      0.75696918446893     -0.05690614939838
