17
Coordinates from ORCA-job sli_prashanth_inp/doublemontecarlogen3D490
  C   0.20831523092079     -1.22413674764558     -0.13041508362482
  C   -1.18536206009042     -1.23720082410997     -0.18144910470534
  C   -1.89016292216014     -0.03764932414827     -0.06120698531462
  C   -1.21787458381613      1.17914695805826      0.10248980012734
  C   0.17329063366686      1.19794896097402      0.14200389184238
  C   0.86273899972744     -0.00655773893076      0.02499765739186
  F   2.20701700050230      0.00744547843713      0.07396042867025
  S   -3.67692849325385      0.03580028186343     -0.18047368369798
  O   -4.14503321899182      0.88929378641768      0.91655658472438
  O   -4.05592768872054      0.31610357065010     -1.56861097418088
  N   -4.14234352660315     -1.55964332514284      0.12420188815434
  H   0.78711542256106     -2.13849326421863     -0.20307421044537
  H   -1.72367640008198     -2.17129107924434     -0.29030516233564
  H   -1.78025449079581      2.09970650872224      0.21749707570434
  H   0.72523670262251      2.12271002642857      0.26980668367663
  H   -4.55326371132827     -1.64340924214389      1.04941036265303
  H   -4.76716689415879     -1.87516402596713     -0.61167916863989
