16
Coordinates from ORCA-job test_1_sl_inp/doublemontecarlogen3D246
  C   -0.00544709111395     -1.88489023578964      0.05304581714114
  C   -1.21300691274414     -1.21106764847182      0.23459022851052
  C   -1.21560043840377      0.17991498099983      0.18193798912469
  C   -0.06740571872150      0.94044596817265     -0.04280831141732
  C   1.10826508733458      0.20955795575249     -0.21743728253141
  C   1.17628806024063     -1.17534469085694     -0.17673244483431
  F   2.25129043119646      0.91417386746156     -0.44341863788608
  C   -0.07231678895843      2.45656596496071     -0.10317354386744
  O   0.46254889069173      2.97426631088592     -1.31116265723020
  F   -2.38617326475104      0.82840349245211      0.36588493422373
  H   0.01720450662217     -2.96947814353545      0.09016797904763
  H   -2.14366781373081     -1.73829713138035      0.41224591807963
  H   2.12858907718836     -1.67270817662509     -0.32199840174754
  H   0.46546410878778      2.85152386047999      0.77347328703749
  H   -1.10247450228191      2.81101218564508     -0.04067049386069
  H   1.38745236864383      2.69726143984894     -1.35281437978985
