15
Coordinates from ORCA-job test_4_sl_inp/doublemontecarlogen3D307
  C   -2.44826808655502      0.00822023348038     -0.14436179445361
  C   -1.63307304558567     -1.11953637248397     -0.07744957492614
  C   -0.25682097890256     -0.95922986491197      0.03777102851966
  C   0.32042634662888      0.31574139919952      0.07440869629393
  C   -0.49671074855999      1.43769568218510     -0.00376692660120
  C   -1.88780085846991      1.29264181049535     -0.09782665555567
  C   -2.70095978951683      2.55119652247866     -0.18839909225057
  O   -2.23534818545403      3.61527494830304     -0.52001397510873
  O   -4.02071454661402      2.45069177510679      0.12234195581350
  Cl  2.05049380052330      0.47294389161994      0.21168489052498
  F   0.52400601379228     -2.04275829849807      0.10609219401448
  H   -3.51814338906687     -0.13121686716490     -0.27412230582547
  H   -2.04046428058271     -2.12373512866156     -0.12210640042863
  H   -0.06908843484514      2.43372308902057      0.00618403155159
  H   -4.20624381679170      1.59901717983110      0.54145392843189
