23
Coordinates from ORCA-job sd_inp/doublemontecarlogen3D387
  C   3.08077016011581      3.66515345876745      2.27186053967401
  C   4.02141937109680      2.69411896378099      1.89452744101893
  C   5.21938669303449      2.55444091412441      2.61286958048613
  C   5.44866380680541      3.39398780389557      3.69689518872854
  C   4.53361337081097      4.36044185151963      4.09925706795009
  C   3.35456408435247      4.47206301454286      3.36617316264808
  F   2.45557608880301      5.39747655849699      3.74106662024535
  F   6.59538119714099      3.26721485608656      4.38667438338185
  C   3.69747675774861      1.83661200379405      0.71108526480886
  O   2.66565785042714      2.04401503494505      0.07606214537907
  C   4.64484256130434      0.70926190635937      0.32777047738440
  C   4.10271622808519     -0.25742372830692     -0.74256316523911
  C   4.15803813193074      0.27504059898057     -2.17891512111862
  O   4.91698122730315     -0.17009988075311     -3.00805354961371
  O   3.30421676521768      1.27350145193664     -2.47050921548295
  H   2.15878827965410      3.77569072949046      1.71417657656265
  H   5.97436485181739      1.82347030726560      2.35126719860180
  H   4.73106156282194      5.00241082331791      4.94950300945908
  H   4.87054246686440      0.14179133231589      1.23901987188314
  H   5.60144606931302      1.14569992053058      0.00875316439948
  H   3.07097068070017     -0.53092978944299     -0.49198471462546
  H   4.70685638739146     -1.16606356192943     -0.73290810805466
  H   2.82012540726070      1.53545543028185     -1.65931781847696
