29
Coordinates from ORCA-job test_2_sl_inp/doublemontecarlogen3D26
  O   2.51428311645271      2.32201863243783     -1.20072034275190
  C   1.54154996791090      2.35704487256751     -0.25569512441054
  O   0.55153259269541      3.02619642865074     -0.41803546824915
  C   1.79168187631703      1.53154674381930      1.01024197079558
  C   2.35124461904055      0.11968315320161      0.70216096469116
  N   3.79872607155348      0.32711772704206      0.71890952148770
  C   4.74401930185434     -0.72177708386773      0.33934966932340
  C   4.80901298864054     -0.92848533416630     -1.16125017341427
  C   5.41003823552855      0.04332618927392     -1.97738796952947
  C   5.45475530388039     -0.10930613753665     -3.36173464840407
  C   4.89363686166562     -1.25208967080381     -3.92551292459997
  F   4.93380568249381     -1.40752275392375     -5.26340187493683
  C   4.29784724104806     -2.23846479858206     -3.14886609249887
  C   4.25907579727034     -2.06596242230195     -1.76352172332329
  C   4.17969169600801      1.40354473766346      1.50531994640989
  O   5.32472709632747      1.68020347538623      1.81372142633730
  C   2.90585462252240      2.15759237372877      1.88729642389832
  H   3.23676383357032      1.72695026017519     -0.93534279706849
  H   0.83514762735853      1.48262931399914      1.53098478739690
  H   2.02528190913952     -0.26855167204926     -0.26822910099887
  H   2.04602825254191     -0.60335119500436      1.47332122127290
  H   4.46784430873684     -1.65954218650082      0.83986449594534
  H   5.71225300394094     -0.40072928033261      0.73551237130889
  H   5.85740704561421      0.92390373400284     -1.52187749868564
  H   5.91730937693092      0.63305629208729     -4.00335274093062
  H   3.87541964367061     -3.11574159298834     -3.62702607807955
  H   3.79801435538740     -2.83262318156136     -1.14531770908972
  H   3.03742374362841      3.23379495443108      1.75229438795282
  H   2.71379382827068      1.98434842115203      2.95254508015106
