16
Coordinates from ORCA-job sli_prashanth_inp/doublemontecarlogen3D489
  B   0.91701384674672      0.18356717651432      0.05414161247345
  C   0.05344312380800      1.09902510182361      0.97825496304723
  C   0.35616543816053      2.46437831003836      1.13545246608636
  C   -0.40984211577510      3.29310592527047      1.95411107406259
  C   -1.49649816010625      2.73987967799573      2.62426383041804
  C   -1.83495984628707      1.39579155040820      2.50318422425691
  C   -1.05418274103822      0.58672722113983      1.67894526080726
  F   -2.24782095500502      3.53321592064948      3.41812205602769
  O   1.98476144658763      0.74952165329768     -0.60091409117697
  O   0.56469466635045     -1.14039946865406     -0.05853849569193
  H   1.20741652896814      2.88149827772345      0.60518244368316
  H   -0.18270224939347      4.34675718002519      2.07996907236441
  H   -2.69109872595376      1.00860350565465      3.04601753520223
  H   -1.30647177191101     -0.46449018588424      1.57383157910600
  H   2.48913982016865      0.14843442430457     -1.16032301768892
  H   1.12581169467979     -1.66691627030725     -0.63864051297751
