21
Coordinates from ORCA-job sli_prashanth_inp/doublemontecarlogen3D531
  O   0.97868287208221      2.57560285138468      2.06398472313528
  C   2.13884387434640      2.03651728627976      1.65573773328632
  O   2.22955052345053      1.56446763116616      0.52754632161718
  C   3.22440439988269      2.12394308270464      2.67538625586246
  C   3.03488534986198      3.08262336393972      3.68917098799591
  C   3.99044452960093      3.30508764060070      4.67143081318119
  C   5.15768514915678      2.54256133531287      4.66529257481221
  C   5.34756999393350      1.56886110297264      3.68854910566806
  C   4.41136443199557      1.33842956844576      2.67058474248881
  C   4.84405785649616      0.19058665772729      1.74171912129429
  O   4.30890715348842      0.06991890273075      0.53419692689352
  O   5.70727556257155     -0.57333439143921      2.12262141014222
  C   6.19475878354080      2.73070969158826      5.74779533770219
  F   7.44388204879079      2.54561801923168      5.27768885524549
  F   6.13305706806119      3.97148370620344      6.27894902470440
  F   6.01065906582234      1.85407063987429      6.75837228878188
  H   0.36192135277954      2.50012714603169      1.31584290411205
  H   2.12329289858046      3.66652611289811      3.69168984323141
  H   3.83263815761253      4.06531049378472      5.42813395843202
  H   6.23687963260618      0.95020051880625      3.69058898130189
  H   3.56932929533933      0.71046863975576      0.38368809011116
