18
Coordinates from ORCA-job sli_prashanth_inp/doublemontecarlogen3D557
  C   0.38427065863942     -1.23125590026262     -0.24829070809618
  C   -0.88893283417694     -1.62314115245336      0.16399181508401
  C   -1.88953752088596     -0.68228664817446      0.41989264345660
  C   -1.60383602459748      0.68986528961341      0.27628745419334
  C   -0.32189071923203      1.08863756164366     -0.12039822453228
  C   0.64491921321526      0.12497308573259     -0.38705743467203
  F   1.86306486869896      0.52638556668088     -0.78637784299832
  C   -2.64849958420683      1.76467582988661      0.46957759484981
  O   -3.74273532087036      1.73854474551571     -0.02979873926057
  O   -2.24613140661437      2.82844407021683      1.21352508887349
  C   -3.24951512704341     -1.17049244488958      0.87593315576785
  F   -4.17036826580905     -1.11115815598933     -0.09920333726794
  F   -3.18520231497038     -2.46113519832476      1.28275340426116
  F   -3.70389413310305     -0.44974764191775      1.92387301188733
  H   1.16362891572098     -1.95662539136547     -0.45403665290616
  H   -1.10775981937455     -2.67583126272706      0.29813173685211
  H   -0.07587261451946      2.13625521615406     -0.26105412197059
  H   -1.39821797087074      2.63472243066063      1.63907115647836
