17
Coordinates from ORCA-job leia_inp/doublemontecarlogen3D204
  C   1.22653758882105      0.34738600155631      0.46710305402963
  C   -0.13031438320079     -0.22375175305609      0.26511012665542
  N   -1.29033823731062      0.34241345177043      0.41674307806227
  C   -2.22086272054384     -0.63899229952999      0.09912912064683
  C   -3.68079643030910     -0.36456306410000      0.16616079997747
  O   -3.97366426286264      0.89522184105629      0.54338224039009
  O   -4.52522332820285     -1.18984315801387     -0.08832681453526
  C   -1.55809469019179     -1.77896886520832     -0.24095170519146
  O   -0.22150980686525     -1.52478309467151     -0.13611047666822
  C   -1.98223288068695     -3.16001383554956     -0.65487627409008
  F   -2.82347134564499     -3.11398699330045     -1.69749768309997
  F   -0.90392940331348     -3.88410873873108     -1.01047950932710
  F   -2.60049081529334     -3.80129557412766      0.35189386731888
  H   1.13084223147501      1.39538317636121      0.75257655397532
  H   1.81964837575086      0.27510735542611     -0.45002823509987
  H   1.76242349378644     -0.19196500470947      1.25505396403527
  H   -3.13754338540769      1.37222055482764      0.69718789292078
