14
Coordinates from ORCA-job leia_inp/doublemontecarlogen3D211
  C   0.64570133348313      1.21133875106851      0.15121851005367
  C   -0.16235022514384      2.26597903974753     -0.59366774588577
  O   0.30943578934612      3.21741656328249     -1.17958705458124
  O   -1.49402255573292      2.08450025770230     -0.59590705468601
  C   2.08615305299132      1.61628386227329      0.48350528732150
  C   3.08772150609953      1.65290297387469     -0.70980198276617
  O   3.94615675973864      0.81615213459510     -0.81981497138110
  O   2.91865695120474      2.66425350500320     -1.55898218247130
  F   2.06728417706056      2.85225489544476      1.08092814082605
  F   2.54935759767186      0.72176193796082      1.39266473522145
  H   0.65715283863913      0.28376423232471     -0.43472250894802
  H   0.16303385483282      0.98250175749542      1.10892596307338
  H   -1.74418464748859      1.30337421015763     -0.08104782367226
  H   2.07705356729749      3.14265587906952     -1.37475131210420
