24
Coordinates from ORCA-job sd_inp/doublemontecarlogen3D402
  C   -2.45466067976610     -0.53325708925289     -0.21298730832873
  C   -1.84382147960066      0.84682108571347      0.14627629778820
  C   -0.35176384891739      0.59781438030692      0.06567691517342
  C   -0.08132505440165     -0.77633349463727      0.02016490598887
  C   -1.36808700197390     -1.58964652320734      0.12336657983011
  N   -1.61042571260988     -2.19396440844041      1.44702720730764
  C   1.23181396520574     -1.23831305961261     -0.06206992906310
  C   2.27483821638417     -0.30837583151460     -0.10001292308181
  C   2.00712191730956      1.06666398567618     -0.04697855043088
  C   0.69251491795391      1.52417024942883      0.03785828316736
  C   3.70805277220286     -0.75794514913219     -0.18560598376448
  F   4.37091349315980     -0.12332263752598     -1.18167624343169
  F   4.38666566834001     -0.48910337493075      0.95604376045097
  F   3.81859170875026     -2.08580596790656     -0.40982874528841
  H   -2.66485765835000     -0.56405667910627     -1.28733411597449
  H   -3.38632497484434     -0.75097411741689      0.31518719622562
  H   -2.12614306943774      1.16661209611251      1.15909990419836
  H   -2.17462357477283      1.64127124526434     -0.53147563321865
  H   -1.38344341970233     -2.41324192043923     -0.59984052205680
  H   -1.52201892408652     -1.47802555997756      2.16740320956363
  H   -0.88170295042876     -2.87608023543848      1.64970938885415
  H   1.45271550794572     -2.30038353009832     -0.11040702342635
  H   2.83010398745428      1.77373970289398     -0.08588704422606
  H   0.49058619418575      2.59177683324115      0.06852037374311
