14
Coordinates from ORCA-job srijon_inp/doublemontecarlogen3D461
  C   -1.39302298475822     -0.08612187906811     -0.00912330182694
  C   -0.75891668105404      1.15255919562947     -0.01619319239049
  C   0.63371366309007      1.23960905720053     -0.02017518082036
  C   1.37348821429625      0.05617433794984     -0.01570197643565
  C   0.75892055086515     -1.18809884012561     -0.00883383311617
  C   -0.64305742630348     -1.27714746229561     -0.00478814686468
  N   -1.27273550104102     -2.51715516442956      0.05991744198470
  F   2.71569806947550      0.10936864669602     -0.02176704198114
  Cl  1.44806800563250      2.78723854731871     -0.03382610580995
  H   -2.47845612121561     -0.13380701763456     -0.00143588227016
  H   -1.34448786071246      2.06591098940632     -0.02101982312295
  H   1.38405077021531     -2.07549962912946     -0.00078770901635
  H   -0.73238850695398     -3.30211649842752     -0.27564443901228
  H   -2.22677419153597     -2.53877428309045     -0.27186080931758
