17
Coordinates from ORCA-job test_7_sl_inp/doublemontecarlogen3D355
  C   1.51193850990344     -0.49945767352260      0.04806491215574
  C   0.65238677653224     -1.59964624639427      0.09164976353787
  C   -0.72711360641458     -1.39681798905716      0.01592909193998
  C   -1.25491527058863     -0.11044975385959     -0.10122890826387
  C   -0.38453660397638      0.98726179736013     -0.14315480873263
  C   1.00377109287800      0.79055094226817     -0.06918502349363
  N   -0.87581264887912      2.27574715858237     -0.25689374377391
  C   -1.79872220302337      3.03719554330454     -0.33913906006594
  S   -2.93716978089292      4.13456668899007     -0.44865185895266
  C   -1.68688327216690     -2.55874909312522      0.05575257584143
  F   -2.43631337351536     -2.61561839435462     -1.06841083795776
  F   -1.05005143110636     -3.74114023149916      0.17999384912186
  F   -2.54871118210226     -2.44958030441658      1.09187440152174
  H   2.58533778988110     -0.65059595628971      0.10592954783116
  H   1.04469673818982     -2.60560229509012      0.18341137178718
  H   -2.32688929341850      0.04616096908763     -0.15944989065579
  H   1.66019775869977      1.65341483801611     -0.10414138184077
