18
Coordinates from ORCA-job test_6_sl_inp/doublemontecarlogen3D345
  O   1.43577714008232      0.45865368634681      0.99844128315930
  C   2.24128584347536     -0.26445777859215      0.22324519341342
  O   2.20286502304384     -0.16027660146289     -0.98484056178978
  C   3.18200468258316     -1.29413339481594      0.85658378106517
  C   3.50190354956672     -2.34519701712021     -0.01248807985573
  C   4.35076913820542     -3.38094102955139      0.36998445282136
  C   4.92228400756402     -3.38183048119881      1.63828555767909
  C   4.63762928289665     -2.32670546667530      2.49367833788028
  F   5.18744989089653     -2.36229301060755      3.72000952379327
  C   3.78098167256560     -1.26666150247246      2.14673386806268
  C   3.54352044099363     -0.18927981807334      3.15256306825709
  O   4.63768835114308      0.16955518363276      3.83103663519151
  O   2.46125036507148      0.34290346853782      3.37129599057397
  H   1.60825690503011      0.31370033174934      1.95853148438298
  H   3.06905289066579     -2.31815998444761     -1.00495020946076
  H   4.56648355656551     -4.18941072920821     -0.32183462204971
  H   5.58143015590658     -4.17171019973388      1.98128619805807
  H   4.35885710374419      0.85154434369303      4.46714809881779
