22
Coordinates from ORCA-job sli_prashanth_inp/doublemontecarlogen3D570
  O   4.45460689206578      2.10324014902437     -1.38261921109878
  C   4.22219138197894      2.72798649597596     -0.20619076193844
  O   3.39405129030542      3.59937088394809     -0.11068572664958
  C   5.03800757129492      2.21661998587761      0.99548702677712
  C   6.31219860150734      1.49574769125770      0.66500802712892
  C   6.52022034912327      0.13253175267408      0.68611650060297
  N   7.81971477242312     -0.15370138767738      0.32983916984212
  C   8.49174788581365      1.02726245546098      0.06870101564386
  C   9.81606211124690      1.25242086966945     -0.32274663125022
  C   10.21906195955335      2.56885937185711     -0.51002589777195
  C   9.30584500205457      3.61764975058151     -0.30775863469919
  F   9.74648584223346      4.88205938300369     -0.49914689691440
  C   7.99185277121532      3.41751154978866      0.07306865428800
  C   7.56896066274045      2.08976696639403      0.26939567723862
  H   5.18419247310202      1.47233983805546     -1.25496163317851
  H   4.36545214736867      1.55663736417484      1.55797276473100
  H   5.21699729357210      3.08389469626875      1.63833539102386
  H   5.83377158469009     -0.66088616039190      0.95006694965236
  H   8.21761990474745     -1.07728126510318      0.27694994547742
  H   10.51112744799340      0.43205339993152     -0.47610587503241
  H   11.23244159275871      2.81005511615962     -0.81168890088387
  H   7.33029046221097      4.26664109306902      0.20865904701110
