14
Coordinates from ORCA-job test_1_sl_inp/doublemontecarlogen3D237
  C   1.32727749394139     -0.44783787938957     -0.01452461267354
  C   0.23729003349495     -1.31214181690816      0.00775125981518
  C   -1.07995392314019     -0.86469153870671      0.02022482004870
  C   -1.29904160207568      0.50641434568424      0.02010031621337
  C   -0.23571633099308      1.41918164246367     -0.00948094344057
  C   1.07260553746213      0.91700983818133     -0.03218086253871
  F   2.10372752463235      1.76021593076900     -0.02986343437503
  N   -0.48422775310631      2.86134222692207     -0.01258415242339
  O   -1.37538305468190      3.27487778141640      0.72440039496057
  O   0.21844856712254      3.54713170157474     -0.75017557901303
  F   -2.55376679344191      0.95298868694812      0.00752623396127
  F   0.46647165875270     -2.63135431182586      0.01725972662735
  H   2.34368062148842     -0.82085095721324     -0.01298515344742
  H   -1.91258197945539     -1.55686564991605      0.02531198628525
