21
Coordinates from ORCA-job leia_inp/doublemontecarlogen3D203
  C   6.82831516276950      2.69777998639947      3.18744568754381
  O   5.64499420340407      3.43788167462388      2.92859180375977
  C   5.39358241795745      3.83239268753639      1.64065003864858
  C   4.19489333560568      4.57460145595064      1.48342598075719
  C   3.86601588080899      5.03994057767826      0.20902267267754
  C   4.69762759057184      4.77914451932922     -0.88661207996814
  C   5.86876856983945      4.04373889688106     -0.72395503219637
  C   6.21533142204992      3.57246595436791      0.54681867126048
  C   4.29226753802490      5.24599811878199     -2.25513076506762
  F   3.57952017614549      4.30728094977679     -2.92524450574695
  F   3.51657485158077      6.35553987544821     -2.20741726173252
  F   5.36491762591831      5.53803814577312     -3.02810127636808
  N   3.37111658941515      4.77156639936958      2.58658047352420
  H   6.82831755822094      2.49098385694168      4.25891055425827
  H   7.72760402904182      3.27186282227658      2.92887646631187
  H   6.83663038071336      1.74918085941533      2.63573574990580
  H   2.95666567286310      5.61668070870172      0.07118354048762
  H   6.51550854782856      3.84780093919170     -1.57153391913213
  H   7.13266659681412      3.00968168379095      0.67418427393933
  H   3.83816788815103      4.67050594521475      3.47694643212824
  H   2.76741396227545      5.57992394255073      2.53910249500908
