18
Coordinates from ORCA-job test_7_sl_inp/doublemontecarlogen3D366
  C   -0.73802534278779      1.36823979444603      0.34528652322757
  C   0.37308242356866      2.21140814779546      0.39598126166971
  C   1.60924579578187      1.74280222614110     -0.03021154856941
  C   1.73696012689215      0.43640386645250     -0.50186755437419
  C   0.63348857976901     -0.40629865458303     -0.55078973109952
  C   -0.62552904884030      0.05147985600652     -0.12458445295476
  C   -1.83653243713678     -0.85029555606886     -0.20591411652044
  C   -2.61837299169843     -0.82495549091653     -1.53353989915348
  O   -3.75263359789793     -1.22284491885570     -1.61525425552030
  O   -1.95736800053252     -0.37237035788624     -2.62330025089071
  F   2.94048899983943      0.00008256549715     -0.90389187282017
  F   2.69212089730187      2.53394129863096      0.00729793164426
  H   -1.70306269968442      1.73883302080721      0.67841109186574
  H   0.29757717465380      3.23030059742180      0.76097645946779
  H   0.77708876133707     -1.42375865628428     -0.90350669945251
  H   -2.56216470105604     -0.61244014079747      0.57580993591855
  H   -1.54617047296859     -1.89648234410394     -0.04923265066146
  H   -1.07641346654104     -0.05582525370269     -2.36651017177666
