17
Coordinates from ORCA-job srijon_inp/doublemontecarlogen3D474
  C   -0.03401758412449     -1.35458638973663      0.69177632339895
  C   -1.02512685205248     -0.53661689774989      1.22914867506968
  C   -0.89487756818493      0.85804205830049      1.24337205552528
  C   0.25817162431505      1.40989661107242      0.66596345718813
  C   1.27289952479168      0.61970580400887      0.13703403534322
  C   1.10697989995717     -0.75999940551646      0.16259774605143
  F   2.07305889272899     -1.53416832197279     -0.35379318896831
  N   0.41243832209763      2.86862556247081      0.49592051227153
  O   1.55273973278968      3.32258481527970      0.55696793381709
  O   -0.60316765295582      3.51481882267007      0.25645657267088
  C   -1.98185167401319      1.62749016223757      1.93159208315653
  O   -3.15411624978955      1.32873408174214      1.86770532943794
  O   -1.50384263198052      2.61799679646949      2.71012180017189
  H   -0.13166008890359     -2.43455421598710      0.68265754174124
  H   -1.92118038891092     -0.97030476474631      1.65971010081772
  H   2.15532825866318      1.07148819088275     -0.29811342977893
  H   -2.27558556442788      3.06748709057483      3.09431245208569
