18
Coordinates from ORCA-job test_6_sl_inp/doublemontecarlogen3D341
  C   1.87402540905962     -1.87118793877604      0.64241759445820
  C   1.08741524614303     -0.82787899084798      1.13149385218959
  C   0.03610503165759     -0.30413648310354      0.36276137071800
  C   -0.21361280250020     -0.85128712385274     -0.90548549594753
  C   0.58653157378227     -1.89110019174381     -1.37168137069235
  C   1.63031752677552     -2.41692126533357     -0.62003677778825
  F   0.34024132250481     -2.39623052033972     -2.59647534949086
  C   -0.83859775745603      0.80408762652540      0.90596739646668
  C   -2.03126129355502      0.35131810995664      1.76862958543297
  O   -2.54200600037630      1.06767618779183      2.59206918774716
  O   -2.51754528164684     -0.88764833784454      1.52486895185522
  H   2.68639696601395     -2.26423924875230      1.24648779889479
  H   1.28915598974945     -0.41185648597514      2.11464837892658
  H   -1.00221422859943     -0.46481220167628     -1.54488352437470
  H   2.22971960229554     -3.22585029420340     -1.02334418173963
  H   -1.26415679628796      1.39143229455415      0.08265639109160
  H   -0.26518677777175      1.50017539765207      1.52264710318801
  H   -1.95713772978824     -1.33950053403102      0.87345908906450
