22
Coordinates from ORCA-job sd_inp/doublemontecarlogen3D411
  C   1.05145238719499     -0.05037232205768     -0.10520422916394
  C   0.42405311327243     -1.28302870168566      0.05131202992562
  C   -0.96657239910827     -1.34573593352393      0.16928097962812
  C   -1.71978851730754     -0.17170312014879      0.12150464108658
  C   -1.09171072502265      1.06408263992258     -0.03353580984856
  C   0.30371066419325      1.13896992910328     -0.13701238920702
  C   1.05770037597010      2.45336622988533     -0.32045112114708
  C   0.32961497764104      3.72816608542547      0.17574397489531
  O   -0.81131330949837      4.00406478923051     -0.11189254965811
  O   1.10881693487103      4.53955830305086      0.90411592326393
  O   2.37402284680965      2.39921856503081      0.25539009515165
  C   -1.63791990375281     -2.68776121714189      0.29024914490897
  F   -1.73606020346998     -3.30226422313375     -0.91144943851666
  F   -0.94080801159047     -3.52026767678922      1.09709891307853
  F   -2.88810406382601     -2.58757056918975      0.78960200203033
  H   2.13082633161602     -0.01219408058527     -0.21429438845592
  H   1.01338703597751     -2.19371964595874      0.08369790198749
  H   -2.79935452342333     -0.22045756906854      0.21394131396254
  H   -1.67967772965336      1.97243759920726     -0.07342405762854
  H   1.22210124598478      2.62016688047729     -1.39385022583806
  H   1.98797536788723      4.11155823338689      0.94306437744649
  H   2.32059810523478      1.84680580456289      1.04999291209835
