27
Coordinates from ORCA-job raina_inp/doublemontecarlogen3D59
  O   2.82246445099822      0.65135738785986     -5.41099622970467
  C   3.63497499401833      1.50125938042233     -6.08098489981613
  O   3.93265400600002      1.32844106837350     -7.24610912570031
  C   4.14024155354440      2.62381557634098     -5.23777267677409
  C   5.21114438261817      3.35898550817888     -5.76665705535007
  C   5.78025180954226      4.40736400720217     -5.05032147955135
  C   5.27824871196017      4.73104928007012     -3.78822334438628
  C   4.20824575643942      4.01047880059490     -3.25637300738745
  C   3.62273252159670      2.95614115167336     -3.96921827069943
  C   2.37080573388797      2.33479627545405     -3.37010342946057
  O   1.27722444540767      2.72319156244225     -3.74912469028441
  C   2.51554867066638      1.33667341401031     -2.27160884930286
  C   3.76393653555097      0.84735228880028     -1.85761612926488
  C   3.85354020606469     -0.09484735085280     -0.83500263944286
  C   2.67909674439146     -0.53790159248581     -0.23464297318969
  F   2.75855666660969     -1.44934959441377      0.75257190037703
  C   1.42295919424191     -0.07145579569027     -0.62071462921877
  C   1.34951408448639      0.86664551178308     -1.64293230380573
  H   2.53678072864876     -0.01783776201308     -6.05487698469362
  H   5.58111510342985      3.08210603861047     -6.74822409731817
  H   6.61051225809038      4.96654934530223     -5.47114245691979
  H   5.71354166613685      5.54715513688514     -3.21838503769210
  H   3.81077018986831      4.27582521299639     -2.28049362608297
  H   4.67015883074258      1.20035702799519     -2.33883692116179
  H   4.80746225377845     -0.48840053271990     -0.50094016072118
  H   0.53649598154082     -0.44734778742250     -0.12087449861474
  H   0.39346251973908      1.25425644060260     -1.97919638383305
