16
Coordinates from ORCA-job raina_inp/doublemontecarlogen3D572
  C   -2.25995926669909      1.20440630051336     -0.00699151370160
  C   -1.00716602944313      1.83091910086084     -0.00212446226013
  C   0.12351153514093      1.02229523159128      0.00541039430832
  C   0.00860171778707     -0.38212092575812      0.00784374575799
  C   -1.23519511981139     -1.00817261299530      0.00318216370688
  C   -2.35831957364110     -0.18757864555619     -0.00426059019319
  F   -3.58570371451001     -0.74734982374838     -0.00931300739125
  C   1.37162291352023     -0.94451565324398      0.01515103157138
  O   1.74644705998907     -2.09544770223717      0.02042142059502
  C   2.32536259046481      0.30467816017555      0.01940604397445
  O   3.53492376010727      0.31486407196022      0.02520812755181
  N   1.47589047064507      1.40036857662895      0.01188535483649
  H   -3.17279239889670      1.79083113457719     -0.01291751148821
  H   -0.93367069652610      2.91386206394389     -0.00411340912413
  H   -1.32620221374633     -2.08920142378155      0.00500835364679
  H   1.81330896561940      2.35189214706942      0.01078385820938
