21
Coordinates from ORCA-job test_2_sl_inp/doublemontecarlogen3D267
  N   3.50486185986587     -0.23581431293342     -0.42865000240925
  N   4.79257999732910     -0.07437063651315      0.13290968717320
  C   5.30228242676666     -1.04838844378912      0.96036460557478
  O   4.61868832607518     -1.99502355470442      1.33814733246646
  C   6.74086933848386     -0.88333928993036      1.35905377747129
  C   7.40920530333527      0.35048909194166      1.33482923205772
  C   8.74547255203133      0.43272376418746      1.72326120800272
  C   9.42781430286733     -0.71184547697109      2.13920072266653
  C   8.75988255551550     -1.93813385442254      2.17843648258094
  C   7.41968324331648     -2.02370237191998      1.79823069392483
  C   9.47235463766382     -3.19571404426330      2.60743497757095
  F   9.60242018684516     -4.06207494634318      1.57668420615347
  F   10.71284130846209     -2.94455328481544      3.07939314917297
  F   8.79166873301163     -3.84416992961675      3.57785339407190
  H   2.83523319584606      0.14916790418477      0.23702050220959
  H   3.32267332703745     -1.24135843247584     -0.44266847193443
  H   5.42963347139948      0.43763066944239     -0.46146849919514
  H   6.87990944269904      1.25340478058772      1.04478963901693
  H   9.25555783791132      1.39116240597126      1.71104253927668
  H   10.46756129452753     -0.65439315873600      2.44121769336604
  H   6.88201665900976     -2.96506687888065      1.83992713078181
