17
Coordinates from ORCA-job test_1_sl_inp/doublemontecarlogen3D244
  O   1.82932310790181      0.63343208058684      1.02421678384754
  C   2.46143251073612      0.12593752728825     -0.05489527651922
  O   2.43675269038582     -1.05630235772225     -0.28268335879917
  C   3.20229946284904      1.10833437814262     -0.94168693218390
  C   2.87947387743719      2.46661215893797     -1.04897761486183
  F   1.90386852305104      2.96990518178308     -0.25185388204571
  C   3.49556586145845      3.35015921898525     -1.92461229503823
  C   4.50599256913092      2.86467440532934     -2.74142444621119
  C   4.89429316298222      1.52702263526228     -2.65718500039078
  C   4.24683625115286      0.65103552942706     -1.77218826730304
  F   4.60576161794931     -0.61750684536184     -1.70911772088675
  N   5.99892795631228      1.08359162248663     -3.52458171500065
  O   6.59634774127649      0.05728552380916     -3.22197673841061
  O   6.25539849997994      1.79820592630934     -4.49432651087812
  H   1.86246907302399      1.60118473779395      1.03479359267349
  H   3.18010917718719      4.38637613640216     -1.95246663660129
  H   5.01730791718528      3.50267214054014     -3.45162398139051
