17
Coordinates from ORCA-job srijon_inp/doublemontecarlogen3D449
  C   -0.44178639878520     -1.92923842446736     -0.06885094553324
  C   -1.62088695030785     -1.17947704599235     -0.05925602077713
  C   -1.47267190556933      0.20829704822373      0.01582964037749
  C   -0.24092748642467      0.84105132733113      0.07754456821982
  C   0.92463283192581      0.07315801808870      0.08889675362804
  C   0.80859569901687     -1.32739109571969      0.01871180762677
  N   1.97337375788284     -2.23372231805668      0.04139281809801
  O   1.86686037205255     -3.27804801804332     -0.59755152869535
  O   2.94420265544977     -1.90073965188301      0.71218030064064
  Cl  2.43828796692950      0.91908230949729      0.12000232233688
  F   -2.57170693130758      1.00740653860640      0.02150959348079
  C   -2.92265312268768     -1.94347951042368     -0.13402077517750
  O   -2.93514745321957     -3.15027116846246     -0.18477045708067
  O   -4.06789030750618     -1.23661601745677     -0.14241894046285
  H   -0.51707867938515     -3.00793117111320     -0.14277922375089
  H   -0.19286434463417      1.92264076872775      0.11306200979229
  H   -3.89427970342997     -0.28385158885647     -0.09611192272310
