18
Coordinates from ORCA-job sd_inp/doublemontecarlogen3D394
  C   1.37048028280959     -0.24721994724043     -0.16669538820066
  C   0.51145977125634     -1.33826838194977     -0.08820253761173
  C   -0.87124690318166     -1.13251605913634     -0.02427743964748
  C   -1.39217911458691      0.16301132668937     -0.04766628942756
  C   -0.52792380109200      1.25424305240312     -0.11550106365098
  C   0.85933260836303      1.05787772711227     -0.16198223464136
  C   1.84276698676701      2.19089958457141     -0.25057951327563
  O   2.96187411549198      2.05924507211267     -0.68547521625457
  O   1.41808143935514      3.40469359108266      0.18887269597977
  C   -1.79762017128211     -2.31350570779033      0.12137549007148
  F   -3.02890862884541     -2.05090240111802     -0.36738065406930
  F   -1.32439851545428     -3.40183200168056     -0.52179496318034
  F   -1.95122031240551     -2.65636607645753      1.42082799763989
  H   2.44461501582795     -0.38215926811191     -0.23327425333621
  H   0.90744356452596     -2.34822451670109     -0.08696103966020
  H   -2.46580298163133      0.31404508313988     -0.02685499783625
  H   -0.95188193403110      2.25374579887155     -0.17357356817828
  H   0.57600857811329      3.31913312420304      0.65728297527941
