21
Coordinates from ORCA-job sd_inp/doublemontecarlogen3D398
  C   -0.83753758313710      1.94319027166627     -0.00554303699824
  C   -2.10133267251547      1.05315400237774     -0.01170496276486
  C   -1.60794194981808     -0.39998102403887     -0.01196325123534
  O   -2.30297636349011     -1.39810468582148     -0.01486933773400
  C   -0.12314030524773     -0.35942266500166     -0.00604475142908
  C   0.32965559904226      0.96655878807880     -0.00154345014734
  C   1.70990731696463      1.20334225723155      0.00570045469979
  C   2.58859767203972      0.11038293692481      0.00609991631286
  C   2.11690857927119     -1.20610450053218      0.00096177323667
  C   0.74555654693625     -1.45093867745567     -0.00445502802275
  C   2.32516720916137      2.57902174400796      0.01289624841589
  F   3.09049362897391      2.78295260369235     -1.08477943241089
  F   1.40595328255321      3.56817713248832      0.04631792882897
  F   3.13333381016928      2.74946255310105      1.08519543147390
  H   -0.79806589154539      2.59987589289289      0.86877910882706
  H   -0.79047659454459      2.60116293251149     -0.87879722174934
  H   -2.73257780938463      1.21616588260086     -0.89144350353792
  H   -2.73851296929484      1.21368704620469      0.86423043796804
  H   3.65877152602387      0.29592608911454      0.01222077908985
  H   2.82448130340578     -2.02958606160802      0.00222012568632
  H   0.33991566443647     -2.45850251843545     -0.00731822850958
