28
Coordinates from ORCA-job test_3_sl_inp/doublemontecarlogen3D29
  O   4.82037671056013     -0.97476893626988     -0.14225776696249
  C   3.89286197366574     -0.44578950117276     -0.97632759337253
  O   3.07636533609593     -1.16205481866726     -1.50487973407678
  C   3.89596038643367      1.09417948538232     -1.12462634965032
  C   2.81507184115822      1.66545750164704     -0.15419090319580
  C   2.34131337464049      3.00372897799848     -0.78027452818056
  C   2.81151044937397      2.96508693399683     -2.26134622111636
  C   3.30277695650318      1.52476458327363     -2.49349925910458
  C   5.30225708521437      1.67892677441569     -0.92789316558682
  C   6.33962747148983      1.25973224967308     -1.78579297355797
  C   7.63299907608779      1.76301364787583     -1.67388360965432
  C   7.89824870867589      2.70904827266711     -0.68778442571210
  F   9.14590171648229      3.20503128687674     -0.57285130088765
  C   6.90984852756553      3.14940447583294      0.18131249594306
  C   5.61885618076539      2.62874458671035      0.05541922927078
  H   5.42233739449557     -0.27305521143341      0.15323709737549
  H   3.16603824379898      1.75954448154358      0.87772727469725
  H   1.98632173760045      0.95131446816350     -0.13983306234575
  H   2.76587610427942      3.86667147485027     -0.25744126271583
  H   1.25371799928456      3.09453611844514     -0.70068460616460
  H   3.63452508923881      3.67141185464720     -2.41417101210983
  H   2.01839077208457      3.24219869790096     -2.96219052380163
  H   4.02429010647959      1.44475963802637     -3.31198709150971
  H   2.47009748580360      0.85198338022913     -2.71856782008850
  H   6.13252779074434      0.51972644994320     -2.55450541124267
  H   8.42916271979316      1.43552129317471     -2.33400925686929
  H   7.15074344041177      3.88707652960757      0.93939743644597
  H   4.85481532127269      2.98440530466160      0.73732434417355
