21
Coordinates from ORCA-job sli_prashanth_inp/doublemontecarlogen3D522
  C   2.86550601008641     -0.06512930419805      0.03283785737791
  C   1.35795541784567     -0.01517714061107      0.13704934912434
  C   0.59451531496345      1.16289571237300     -0.02332639905661
  C   -0.79322255067905      1.13456803136469      0.11696596933595
  C   -1.46749084855565     -0.05213503044023      0.41955774903965
  C   -0.72321467804760     -1.22971840058127      0.55250052676970
  C   0.66145100543292     -1.20072697066917      0.41323739473423
  C   -2.96146309112180      0.00796976275582      0.54208128490594
  O   -3.62452499398425      0.91357422770942      0.09502593905855
  O   -3.56581140843251     -1.02302572683599      1.19143449418201
  C   1.21557346599158      2.52067740074673     -0.27395617732758
  F   0.40628753332387      3.30216984543935     -1.02085537267568
  F   1.43474990627883      3.17725125647904      0.88976569330647
  F   2.40281966201575      2.45890192939151     -0.91612203759611
  H   3.34044789519760      0.65774130767364      0.70311953130096
  H   3.20668110530890      0.16924213022207     -0.97907922561693
  H   3.22801963519239     -1.06225428727936      0.29414185604302
  H   -1.37821605377001      2.03727103177499     -0.01701963355023
  H   -1.21031010055453     -2.18579411247670      0.73116801737238
  H   1.22486009870109     -2.12368479874034      0.51734068063205
  H   -2.90807332519309     -1.57388686409807      1.63796250263998
