18
Coordinates from ORCA-job test_2_sl_inp/doublemontecarlogen3D269
  C   1.40018234208621     -0.28146230730428     -0.00219503153893
  C   0.51536635553170     -1.36043493005493     -0.01135292802740
  C   -0.86474710103597     -1.14377188647121      0.05447980999502
  C   -1.37235248307937      0.15374650045396      0.13750430504925
  C   -0.46708334520879      1.21294749221550      0.14778640303362
  C   0.91363341754469      1.02289489496385      0.07496767151647
  S   -1.10199225390274      2.88600290915545      0.21326900391400
  O   -0.10584866429596      3.79592636848262     -0.33644815474810
  O   -2.49150151246225      2.88823639456731     -0.22249076391142
  Cl  -1.13574049199600      3.22833609619410      2.31630735471229
  C   -1.81243685075640     -2.31804244274176      0.07091451031333
  F   -2.97912055840171     -2.02068204983634     -0.53676188150084
  F   -1.27954869685858     -3.38918740031855     -0.55474222167973
  F   -2.10572196116176     -2.69741548952498      1.33276063603141
  H   2.46930110049581     -0.45644234024082     -0.06495822167026
  H   0.89164964070011     -2.37484436871734     -0.08201995023306
  H   -2.44053880728124      0.33674147258703      0.17354523038478
  H   1.58003987008227      1.87796108659040      0.06868422835957
