21
Coordinates from ORCA-job test_2_sl_inp/doublemontecarlogen3D255
  C   1.63512759445114      1.19955049935196      0.57355224789192
  C   3.02818204454048      1.29888232504612      0.53615262930425
  C   3.78299887423691      0.18211854486468      0.20591128288892
  C   3.15033513985191     -1.02655838944870     -0.08430011338526
  C   1.76667612389923     -1.12593722928811     -0.04636375533153
  C   0.98595270362120     -0.00781556246401      0.28426412775822
  C   -0.52505079024026     -0.10244318519636      0.29642842833141
  C   -1.14243900066854      0.15751267148089     -1.08742760251843
  C   -2.66458540755281      0.07199421401396     -1.07351607994500
  O   -3.32674288040213     -0.17709076244686     -0.09790788650450
  O   -3.27221335644721      0.30222418382167     -2.26959873993500
  F   3.90132248644372     -2.09723056445209     -0.39760529766243
  F   5.12562002964690      0.24534945945199      0.16747262914096
  H   1.04817738046400      2.07413648842577      0.84066361801157
  H   3.53917560440387      2.22813592420577      0.76570052816238
  H   1.31133710095973     -2.08681563533042     -0.26809789790785
  H   -0.94337728926745      0.61742786253211      1.00656518429748
  H   -0.84515548556799     -1.09036761310591      0.64221834567621
  H   -0.75685224831372     -0.56397629694169     -1.82136820268774
  H   -0.84915964442966      1.15016997135596     -1.45662728617917
  H   -2.61248897962933      0.48522309412330     -2.95398615940640
