15
Coordinates from ORCA-job test_5_sl_inp/doublemontecarlogen3D332
  C   -1.22686220979053      1.21151321990884      0.09291523026748
  C   0.16589084480613      1.19556689660157      0.00559404033236
  C   0.82666864434611     -0.02775314268735     -0.08118948721895
  C   0.14465446265025     -1.23889657779004     -0.08314462104705
  C   -1.24617617243328     -1.18102207019448      0.00942879249915
  C   -1.95265024656862      0.01872857513137      0.09724636433485
  S   -2.16383607666985     -2.72018895081384     -0.00441168291183
  O   -3.54296208989233     -2.45274772916449     -0.39124026749891
  O   -1.36139792987018     -3.75760231900733     -0.63916123373099
  Cl  -2.20673077034348     -3.18973519525714      2.07586602836572
  F   2.16696346454127     -0.03949127716956     -0.16983294255842
  H   -1.75055859252520      2.16012143846354      0.15536715185410
  H   0.74602011836750      2.11216103857364      0.00093970660419
  H   0.67709725081337     -2.17934120484080     -0.16223930970087
  H   -3.03467069743115      0.01368729824606      0.15681223040917
