23
Coordinates from ORCA-job test_2_sl_inp/doublemontecarlogen3D257
  C   1.53286777555210     -2.16228020116417      1.90761063147510
  C   2.57341272118607     -1.83422590302031      2.76675981369959
  C   2.43491552979121     -0.71128190182781      3.58103651273987
  C   1.29498925824821      0.08782643118003      3.55771448484226
  C   0.25893401757635     -0.25480858169326      2.69380342832611
  C   0.36158165147007     -1.38296131867219      1.86054752193021
  C   -0.71196676403736     -1.78760316786622      0.91346856597796
  O   -0.56006313332330     -2.78132015621359      0.20033430322069
  C   -1.99379394203132     -0.96679923725371      0.84301252053472
  C   -3.12085885732344     -1.59144855301593     -0.00209151854571
  C   -2.94414814111594     -1.44948865973663     -1.51820813053319
  O   -3.66684329837432     -0.75521047248637     -2.19527811792713
  O   -1.93158358433730     -2.14984781515004     -2.05961264808709
  F   3.43480573390501     -0.38778004240444      4.41645863731165
  H   1.60360297316438     -3.02639633207081      1.25596940036552
  H   3.48273189895367     -2.42336149554152      2.81722511100770
  H   1.23510866462785      0.95448848045896      4.20682345383362
  H   -0.62835947441708      0.36869343213799      2.67427105272895
  H   -1.74512678232605      0.03827921197383      0.47487898767864
  H   -2.35802991367172     -0.82249896659626      1.86745213658926
  H   -4.06163591399052     -1.09530703480421      0.24193656352581
  H   -3.21774330622570     -2.65293833112559      0.25505121882320
  H   -1.43847711330084     -2.61089938510774     -1.34643392951778
