17
Coordinates from ORCA-job ewa_inp/doublemontecarlogen3D172
  C   -1.40432650797517      1.27803316161201      0.25352196619894
  C   -0.01932925704206      1.16085287114744      0.25994834734573
  C   0.54914442316869     -0.07653648383875     -0.02110757761604
  C   -0.20047457568595     -1.22225348353784     -0.31167453263843
  C   -1.59433914611093     -1.08538659421012     -0.31443257949091
  C   -2.16988546191677      0.14703169855873     -0.03597068949046
  N   -3.63963086385527      0.27002134373133     -0.04516166997378
  O   -4.29211112013165     -0.73738148842726     -0.30432901031279
  O   -4.11277863034623      1.37728324504007      0.20783915847727
  C   0.35163045541842     -2.59660848548426     -0.62181719753780
  O   -0.38317243801003     -3.52582254983407     -0.85779555258933
  O   1.68859312174633     -2.75345427669424     -0.62589844329193
  F   1.90830574452603     -0.14775903775752     -0.00624503746289
  H   -1.89636494537462      2.21890748771697      0.46596544344092
  H   0.62484057210623      2.00528974142043      0.47763932940014
  H   -2.20619260831296     -1.95137533058845     -0.53573587665410
  H   2.13900123779596     -1.91975181885447     -0.42037607780453
