28
Coordinates from ORCA-job leia_inp/doublemontecarlogen3D2
  C   3.06222776118241      5.88226351052054     -2.82884984270835
  C   2.11156273273177      4.94082488662390     -2.42513670423115
  C   1.83831894543486      4.73152727875688     -1.06483776837319
  C   2.53981482914197      5.48747341237234     -0.11401517807859
  C   3.48151931797787      6.41703497076541     -0.53849215588177
  C   3.75961582788872      6.63472513706307     -1.88423703483840
  F   4.15299939768689      7.13080892968707      0.38817710012780
  C   0.78004566113585      3.74466624124817     -0.61942940461986
  C   -0.59225552671710      4.40116742701988     -0.33218266796240
  C   -1.61408483786937      3.36983438683562      0.17733347405718
  C   -2.95494213773039      3.94720861546735      0.66076745089005
  O   -3.56940710584821      3.44814017386334      1.57615402171209
  O   -3.41203461167756      5.01430470001463     -0.01116232062636
  N   -1.17728597900707      5.11145906476396     -1.48985830030161
  Cl  1.93877341792898      1.15291238580302      2.61338849325473
  H   3.26613685986818      6.02748217251298     -3.88578139494297
  H   1.58931722277420      4.35043150995592     -3.17361559729663
  H   2.37026019785724      5.35464228121460      0.95044415515757
  H   4.50599960513696      7.36919410293457     -2.16677136506312
  H   1.11248797676223      3.23167600374152      0.29126677719358
  H   0.64780122097878      2.96899876980842     -1.38607521976761
  H   -0.44798841878512      5.16179609322310      0.44625967262593
  H   -1.83192687756278      2.64971100166525     -0.62604663352189
  H   -1.20161208939899      2.79371781967282      1.00849468881629
  H   -2.74119170289770      5.26324236142542     -0.70573940980062
  H   -1.23281891902302      4.48781060967769     -2.29458667024344
  H   -0.59248212018410      5.89698847749648     -1.76536087062768
  H   2.80000935221439      0.31089767586552      2.16429270505051
