18
Coordinates from ORCA-job test_2_sl_inp/doublemontecarlogen3D261
  C   1.11226182253136      3.65850473903077     -1.67232972768900
  C   2.48315755260013      3.50668300261148     -1.86323286941568
  C   3.18865609846100      2.52390016304829     -1.14784362977519
  C   2.49597984998450      1.69942127872098     -0.24161062121563
  C   1.12609002062507      1.87806201298627     -0.07448090903852
  C   0.41434854693120      2.85027452839453     -0.77632288441739
  O   0.33552505696341      1.10960614383250      0.78950189481796
  C   0.87148782330376      0.19156036527216      1.62422203272697
  F   1.50815950688838     -0.80430759812280      0.97080725415360
  F   1.75907192816491      0.72494474107178      2.48918427648430
  F   -0.13040043035190     -0.34271877699564      2.32333871967051
  N   4.54922988152275      2.32049254770461     -1.37020397712254
  H   0.57714981305726      4.42226878420612     -2.22940188301138
  H   3.01246579646298      4.14171442276258     -2.56872005955739
  H   3.03338156214546      0.93251620947322      0.30168926917556
  H   -0.65170447888023      2.95554922732559     -0.61200576928965
  H   5.04898025088913      3.11162397048132     -1.75117584949634
  H   5.05470939870080      1.87526423819623     -0.61705526700018
