19
Coordinates from ORCA-job sli_prashanth_inp/doublemontecarlogen3D488
  C   -1.46841741380020      1.15741237398177      0.01126487963713
  C   -0.07647583009686      1.11334173433322      0.09527006231661
  C   0.53087543737235     -0.11965922922786      0.28514112730961
  C   -0.18903647421437     -1.30196442482744      0.38983609501478
  C   -1.57710318264574     -1.24100706997268      0.29459737948508
  C   -2.23456029128401     -0.01551290451639      0.10225134520166
  C   -3.72690017840507      0.02117225242683     -0.01684054689048
  N   -4.46217844481233     -0.87924267808797     -0.56371777042202
  N   -4.32251400100520      1.17390744791927      0.47657532183781
  F   1.88951848583275     -0.17567934635164      0.38291882711793
  Cl  4.08561062871120      0.62382696178568     -1.98060670304049
  H   -1.96745180509831      2.10685878424680     -0.15354085631829
  H   0.52810146428041      2.01012636255675      0.01157729727740
  H   0.33289507195376     -2.23969862445118      0.54697979640594
  H   -2.16273691939038     -2.15084088765642      0.38636354100127
  H   -3.88076903842093     -1.59651883985491     -0.99789814302625
  H   -3.92655620784871      1.56459129837795      1.32063944778108
  H   -5.33365073927010      1.12248141695286      0.47850098780322
  H   3.28230943814183      0.27062537236537     -1.02959208849199
