18
Coordinates from ORCA-job leia_inp/doublemontecarlogen3D201
  C   -1.55770519587166      1.17913238616182     -0.09609290261439
  C   -0.22608751485491      1.39007168864592     -0.34982570031678
  C   0.68727037972102      0.26477713635543     -0.46324595063810
  O   1.90375252092629      0.33239595973670     -0.69825281386528
  N   0.09146418351702     -0.98476859452295     -0.28716101805130
  C   -1.23478631593905     -1.18591394944121     -0.03372133806224
  C   -2.09030699564560     -0.12722465502926      0.06886333211145
  C   -1.65167659502288     -2.62351201207895      0.16171628600714
  F   -2.98441585121599     -2.75333670277764      0.15322767546455
  F   -1.13575493634720     -3.39939532404817     -0.81725568209644
  F   -1.18588544808506     -3.10189776551376      1.33313276336694
  C   0.27356278077378      2.80518455850053     -0.51722581102305
  O   -0.47940905002926      3.75198826557380     -0.42542085852256
  O   1.57762226670342      2.93906838633746     -0.76878339222940
  H   -2.19786116971620      2.05362856590421     -0.02519037110483
  H   0.71756705428366     -1.77654408113626     -0.39308612092221
  H   -3.14020045020187     -0.29449695699335      0.26796534675847
  H   1.99611033700448      2.04060309432570     -0.80232344426197
