11
Coordinates from ORCA-job leia_inp/doublemontecarlogen3D196
  C   1.31758314965147      1.19131923698349      0.00332084579366
  C   1.93476338882200     -0.06408365940694      0.00482677867687
  C   1.12315035033044     -1.19610606798751      0.00029194929816
  N   -0.21904370552595     -1.14554027002774     -0.00529494111005
  C   -0.76447963117634      0.05165209582658     -0.00643422562762
  C   -0.07186953957655      1.26387521224577     -0.00251111243216
  F   -2.10707767925782      0.09063536702342     -0.01191859729697
  H   1.91052610073019      2.10142869792012      0.00668288870613
  H   3.01518098562274     -0.16240909649343      0.00938918972201
  H   1.56015563117981     -2.19263206988804      0.00119643676921
  H   -0.61051905079998      2.20454055380427     -0.00399921249925
