18
Coordinates from ORCA-job sli_prashanth_inp/doublemontecarlogen3D516
  C   1.16236901153601     -0.33411490994954      1.39578852453431
  C   -0.16964905194796      0.03626863238056      1.50973680689225
  C   -1.03672222080548      0.08561291376909      0.39769800660623
  C   -0.53391220994081     -0.27656563407374     -0.88954386918219
  C   0.80838052379706     -0.66102775225077     -0.98196573381227
  C   1.63118953406451     -0.67742190617660      0.13421664817568
  F   2.91428705732634     -1.04041276964366     -0.01042093883511
  C   -1.23707074442067     -0.36344921147053     -2.26098187057463
  O   -0.65878788454596     -0.90970920294547     -3.17907579311098
  O   -2.43410955539184      0.17432424054299     -2.43447501999971
  C   -2.42352321734036      0.53447782896293      0.68210236256268
  O   -3.28248563990035      0.85410698514699     -0.13641466127907
  O   -2.71366047070441      0.59950091176890      1.99431549331756
  H   1.82374591584299     -0.36006599545500      2.25463262105580
  H   -0.55923009372300      0.30331748594157      2.48357298866216
  H   1.19198677362732     -0.95912864011679     -1.94985091506144
  H   -2.81253473784563      0.54096058860250     -1.59227426265793
  H   -3.62669298962776      0.92811643496657      2.05227961270667
