17
Coordinates from ORCA-job srijon_inp/doublemontecarlogen3D473
  C   0.16836548513908     -1.26409698439534      0.08370771449283
  C   -1.17388978982295     -1.07733325159534      0.38938042413729
  C   -1.77576136656727      0.19155469491307      0.47165099841276
  C   -0.91703877441548      1.29509330782705      0.26087702546790
  C   0.44511967302345      1.13782074339808     -0.01050742180313
  C   0.96546403961149     -0.14205138824573     -0.11213274752713
  F   2.26616336818312     -0.29197982954395     -0.39661556054817
  N   -1.33156720121493      2.71555984739134      0.30969318451639
  O   -0.50708852080589      3.53261099798366      0.68947743641258
  O   -2.46586030336907      3.03070804308656     -0.08456344940442
  C   -3.25236421062679      0.11424333902478      0.88155884140607
  O   -3.65202358448616     -0.88513486616873      1.43868600695836
  O   -4.07475767557445      1.11314989608083      0.58116188024231
  H   0.59984076197934     -2.25627417404653      0.00909362271341
  H   -1.81060098591794     -1.92957406365558      0.59479289483362
  H   1.08195645722825      2.00304491661308     -0.13864677575277
  H   -3.58882737236381      1.85073877133272      0.14972592544207
