18
Coordinates from ORCA-job test_4_sl_inp/doublemontecarlogen3D314
  C   -1.64195776696596      0.33628949263093      0.30428338243779
  C   -1.02501274356984      1.57342846029983      0.14172353963173
  C   0.36118557598154      1.66228873355178     -0.01209308952110
  C   1.10921999755771      0.48299579369460      0.00044116849037
  C   0.51501644004378     -0.75959641863368      0.16962588881427
  C   -0.87516568003419     -0.83484558869879      0.33277535508802
  C   -1.60138034370431     -2.14120591633380      0.50363598196013
  O   -2.77613429448494     -2.27234020698115      0.25843325766417
  O   -0.87166969881603     -3.19439606907520      0.95239665275379
  F   2.44079793229204      0.54600388076942     -0.16329913086117
  C   1.05103740201572      2.99111300468754     -0.19051808349635
  F   1.75247823159794      3.03459984443075     -1.34084973241676
  F   0.15934943116405      4.00400559363576     -0.21890709127287
  F   1.91290436489234      3.23710877955785      0.81752125775231
  H   -2.71762627398394      0.25551286774391      0.41039450124462
  H   -1.61328414978515      2.48359834235648      0.12896839476750
  H   1.15156296740294     -1.63811236616807      0.12665185613340
  H   -0.00669139160371     -2.90016822746815      1.27032589083017
