18
Coordinates from ORCA-job sd_inp/doublemontecarlogen3D395
  C   3.50388069117367      0.37422669758131     -3.13150127262619
  C   3.09846777681995      1.57284376052021     -2.55473814658352
  C   1.98064791723926      1.59748081528941     -1.72164350516157
  C   1.25879688759908      0.43275167927888     -1.45652261408438
  C   1.66415576738037     -0.76379457016348     -2.04483919185687
  C   2.78658413864494     -0.80337945690213     -2.88363014737361
  N   3.22385626701487     -1.98500559742279     -3.48688560939154
  C   2.92928680363542     -3.15646021795556     -3.55940843565689
  O   2.75731914271386     -4.31240173473003     -3.71046216755104
  O   1.69255189753466      2.84869142279429     -1.16986467410328
  C   0.45290182891922      3.13476775046537     -0.70024078818557
  F   0.14789177581295      2.43542774498838      0.41566232812983
  F   0.43123305297188      4.43075905735878     -0.39597575490177
  F   -0.51178874087484      2.88243335073240     -1.60287105048181
  H   4.37201932900442      0.33879254232137     -3.78053899459440
  H   3.63840308852867      2.49504335320978     -2.74012893252958
  H   0.39946085727201      0.44378720821570     -0.79896434152893
  H   1.10712151860959     -1.67441380558187     -1.84611670151885
