13
Coordinates from ORCA-job sli_prashanth_inp/doublemontecarlogen3D497
  C   -0.75505509227173      1.20215653386400     -0.01588221508829
  C   -1.38654213018646     -0.03760560862495      0.00516472391196
  C   -0.60243815340826     -1.18834826030315      0.01642363692536
  C   0.78907929314300     -1.14041743826682      0.00777282196296
  C   1.41613015205262      0.10144282393752     -0.01328125649765
  C   0.64924911713046      1.28043144177772     -0.02547992789023
  C   1.29640417302651      2.55958460168235     -0.04821937650507
  N   1.82024841249305      3.59833159848392     -0.06967195445279
  F   -1.20876825957337     -2.38808155959986      0.03636149175521
  H   -1.34278435873214      2.11399584222777     -0.02514740004793
  H   -2.46750206013168     -0.12391438812886      0.01278227396739
  H   1.35729894044939     -2.06394996926032      0.01738383904387
  H   2.49904996600860      0.16565438221068     -0.02054665708478
