20
Coordinates from ORCA-job sd_inp/doublemontecarlogen3D386
  C   2.92733702094220      0.49089399783125      0.08695580305793
  C   1.42030139767296      0.55636463136850     -0.00793535690983
  C   0.76813177934696      1.75071353060026     -0.34299562852498
  C   -0.62413247984075      1.80807920923317     -0.45884909517448
  C   -1.38843121854031      0.66906763491485     -0.23862809842299
  C   -0.75720688058678     -0.53965309117144      0.10303687439496
  C   0.64198207228385     -0.58437203349368      0.21708886857887
  C   -1.63188063799925     -1.71839802585586      0.33079564176099
  O   -2.84216543414224     -1.69246909166198      0.22146400665756
  C   -0.97525019450998     -3.06789107974694      0.73929573218017
  F   -1.89559951197131     -4.01629095220528      0.91104387813398
  F   -0.10523436959072     -3.48851859192442     -0.20740556344208
  F   -0.28479910695752     -2.93098582463315      1.89435330973526
  H   3.35526862779527      1.46718493113081      0.33290678334102
  H   3.36867064437291      0.17030111601319     -0.86505674425078
  H   3.24913230599421     -0.22319567431672      0.85115948756377
  H   1.35789646199262      2.64838633481744     -0.51348293017445
  H   -1.10714613112939      2.74594901229799     -0.71749078510303
  H   -2.46996529954114      0.68653435263713     -0.31954931156510
  H   1.13874095440843     -1.51015038583512      0.48365312816324
