25
Coordinates from ORCA-job sd_inp/doublemontecarlogen3D417
  O   1.83616211237015     -0.03386334535152      4.09953144048500
  C   1.77077596799920     -1.20108653473571      3.40516176304628
  O   0.70584794177527     -1.74980718574382      3.24402959836511
  C   3.05967332476001     -1.74695587189774      2.86906671420322
  C   2.98383918697172     -2.69348392806961      1.83854109316781
  C   4.13590866147172     -3.24595977880055      1.29270578680586
  C   5.38927799639137     -2.87610950972138      1.79876979920239
  C   5.48238209787090     -1.94591278555307      2.84062802039414
  C   4.32150149758521     -1.38692530581506      3.36444528150462
  N   6.57738959572242     -3.44208186175717      1.26822110926723
  C   6.71365232247526     -4.57113818269626      0.50172315244286
  C   8.05637755360002     -4.71891894391737      0.24040668517531
  C   8.65908782240503     -3.62305882823725      0.89959235275658
  N   7.77026427174159     -2.85585252980921      1.51916809825188
  C   10.11834124238455     -3.28718971164877      0.96744964240827
  F   10.36257876536418     -2.01890319581494      0.58651579635392
  F   10.61075524079768     -3.43163722853542      2.21550057210545
  F   10.82087891926685     -4.10807657522754      0.15481884649146
  H   2.71013554749968      0.36917443995405      4.00305025395232
  H   2.00471824984347     -2.97693000756519      1.46805699263355
  H   4.05487770763564     -3.94591142849052      0.46852497541836
  H   6.45885834142222     -1.68076519062141      3.22574479799888
  H   4.41707223174695     -0.69628201316029      4.19894584966616
  H   5.86862382130776     -5.18176130172317      0.22605388263209
  H   8.53780957959103     -5.49668319506102     -0.33120250472877
