18
Coordinates from ORCA-job sli_testing_inp/doublemontecarlogen3D610
  C   1.56642488545043     -0.48463915697628      0.35293706462191
  C   0.55696386408582     -1.42608739118688      0.13877079150949
  C   -0.74469084543831     -1.00579343639985     -0.13019979074202
  C   -1.04993448510009      0.36103681266728     -0.18582049668292
  C   -0.03153409344423      1.29970338000674      0.02266091855787
  C   1.27018140095223      0.87852726469629      0.29476318666195
  C   -2.45315399153568      0.81306588078804     -0.48055026373218
  S   -2.84358347743539      0.92338783150967     -2.25677269574281
  O   -4.25889770183430      1.20272512907479     -2.42461384934466
  O   -1.82021845329133      1.65182020420273     -2.98242202900268
  F   -2.64194225671603     -0.64975731171867     -2.62192009537189
  H   2.58003088199147     -0.81266664808240      0.56482826258175
  H   0.78270610831152     -2.48764137946927      0.18034903084691
  H   -1.52648489383205     -1.73973875604412     -0.30464225983169
  H   -0.25849027571937      2.36137523701350     -0.02701356836304
  H   2.05153925875333      1.61445777951893      0.46028923589262
  H   -2.65528567452333      1.82378004451968     -0.11409372636296
  H   -3.21563025067470      0.14153451587981     -0.07793971549565
