17
Coordinates from ORCA-job test_7_sl_inp/doublemontecarlogen3D364
  C   -1.38917700369833      1.52391093133300     -0.03870380515748
  C   -2.68525580102494      1.00969629249321     -0.02086482314526
  C   -2.82859153124966     -0.38686469220379     -0.09475154019811
  C   -1.72318372811264     -1.22472609468261     -0.19199453073778
  C   -0.43435917503159     -0.69484335039814     -0.18763187227119
  C   -0.26730870682422      0.69442841840531     -0.10797481608887
  Cl  1.30912132064355      1.42246740307067     -0.10624267846752
  Cl  0.92049630051290     -1.77765070147938     -0.28352111250641
  N   -4.14106771667995     -1.06796508406220     -0.05139363880340
  O   -4.21593864639319     -2.16411929335396     -0.60334709571397
  O   -5.04856282474189     -0.51310494511366      0.55675168575372
  C   -3.83377652557094      2.00981984572716      0.03700667019294
  F   -4.77753123620961      1.73873902910659     -0.87980349649175
  F   -4.40291731659677      2.05872548909712      1.24974304561401
  F   -3.37457165149136      3.25663680957274     -0.22959948298325
  H   -1.24398006916628      2.59563075482592     -0.00722487300426
  H   -1.87879568836506     -2.29314081233798     -0.26876763599141
