27
Coordinates from ORCA-job sli_prashanth_inp/doublemontecarlogen3D555
  O   3.88670725994162      4.02946459762982      4.94547267690517
  C   4.07973975936205      3.01232982866418      4.06984115269770
  O   3.67534661484059      3.06561606369540      2.92450266943798
  C   4.81994919519370      1.86382905810148      4.65653357719601
  C   5.25096815637983      1.89395022952125      5.99182832341744
  C   5.95671059437792      0.82202401171396      6.53152239443438
  C   6.24549055523028     -0.28721880895622      5.73397491679772
  C   5.82684575912095     -0.32096596656063      4.40345980228959
  C   5.10535622705607      0.74300055516910      3.85065288665901
  C   4.75193479852525      0.64053591438781      2.37377946463927
  O   5.62823321069799      0.84723360318104      1.54870171854527
  C   3.39774367449250      0.15419648221891      1.97993019650372
  C   2.42880349817237     -0.22898453528286      2.91898432767356
  C   1.18596717993828     -0.70377221738689      2.50390361785636
  C   0.92810973310430     -0.78700944260266      1.13917028927316
  F   -0.27076570323417     -1.24490100403952      0.72968125700008
  C   1.86859379879867     -0.41467374897648      0.18037958283290
  C   3.10440230070843      0.05355878255131      0.60992121399627
  H   3.40708543907248      4.71442676950928      4.45099350155755
  H   5.03006379767622      2.76651328820503      6.59583195762458
  H   6.28502265263929      0.85409280022836      7.56607315322463
  H   6.80193306091898     -1.12502735166611      6.14474040802576
  H   6.06448378164393     -1.17929420237133      3.78179848805404
  H   2.64511002999966     -0.16174852075298      3.98054222510575
  H   0.42323721834576     -1.00776060572458      3.21275366087427
  H   1.62003414462380     -0.49705459914933     -0.87243594925893
  H   3.86689326237318      0.35232901869267     -0.10154751336331
