21
Coordinates from ORCA-job sli_testing_inp/doublemontecarlogen3D93
  N   4.61233759426867      1.45141870999938      0.70223323333450
  C   3.93411666069938      2.17099654159971     -0.25168922225299
  O   3.16763282029021      3.07812075593038      0.09195076688880
  C   4.19630304546572      1.82184264752693     -1.67803518201300
  C   5.31726220107387      1.05939442380250     -2.04535669861613
  C   5.58587480735737      0.71870557741243     -3.36424386600240
  C   4.70216154547170      1.15703481901631     -4.35799952231181
  C   3.59156744884245      1.92449849815873     -4.03632096971109
  C   3.31503752124115      2.29037692549695     -2.70036445871914
  N   2.20861369862590      3.03749540644895     -2.41008174711456
  C   4.95916918151081      0.83838790487699     -5.80934486989356
  F   3.88763581588301      0.24956069765543     -6.38920639545910
  F   5.21791367320704      1.95855104577774     -6.52403507292413
  F   6.01182842623052      0.00923409793621     -5.97273590240083
  H   4.32823874196619      1.63993528285907      1.65304655445807
  H   4.94440145097716      0.52128325170643      0.50247162995185
  H   6.02361116271091      0.75648412382206     -1.27859040963833
  H   6.46049699532141      0.13602402336187     -3.62437686850878
  H   2.91966940246144      2.26011913583979     -4.82148716146421
  H   1.73768302519291      3.50432459458890     -3.16848445068264
  H   2.18436478120214      3.45236153618324     -1.48442938692050
