13
Coordinates from ORCA-job ewa_inp/doublemontecarlogen3D142
  C   -1.37566187677486     -0.07666193679597      0.02051290591441
  C   -0.74315405619475      1.16522356446341     -0.01712664225278
  C   0.64654626567246      1.23964349542016     -0.06115083463248
  C   1.43991035545447      0.07916988718671     -0.06827111589613
  C   0.80588415600797     -1.16798750952264     -0.03071044062625
  C   -0.57974720589014     -1.21935054221171      0.01242149683315
  F   -1.17464254894204     -2.42801853392778      0.04808471584448
  O   2.79207864780604      0.10364395965877     -0.10971493567753
  Cl  1.45542960338399      2.80664011829455     -0.10996759746498
  H   -2.45525031650582     -0.16395490543457      0.05522141300854
  H   -1.32617281050767      2.07979735950618     -0.01233420745606
  H   1.39831122464578     -2.07519987844546     -0.03569430416335
  H   3.08840856184457      1.02701492180834     -0.13181045343103
