18
Coordinates from ORCA-job sli_prashanth_inp/doublemontecarlogen3D556
  C   0.52578889583504     -1.20965391824535      0.05395775032176
  C   -0.78929379116833     -1.66333043119828      0.15002101190242
  C   -1.86341590357856     -0.77091509501241      0.19171942880635
  C   -1.61532363386324      0.61440685298552      0.12079307591474
  C   -0.29751331370279      1.07382760875042      0.00777435791380
  C   0.74922155263107      0.15843771239779     -0.01405003963159
  F   2.00785941904285      0.61832690967027     -0.10853496319380
  C   -2.71289682335251      1.64699228061698      0.22778043206460
  O   -3.56519012677509      1.63859786471406      1.07686051935622
  O   -2.64315888879058      2.65473434282965     -0.68144784669678
  C   -3.26908792796776     -1.33044590242007      0.28423949677501
  F   -4.10098585409891     -0.72133322550479     -0.58788900269995
  F   -3.28085364257242     -2.65170236933519     -0.01731066253019
  F   -3.79212258879780     -1.20475731332926      1.51426595784741
  H   1.36394335005209     -1.89704521674059      0.02631819169621
  H   -0.98639403548419     -2.72816399300191      0.18263483830115
  H   -0.07185912392628      2.13492393393608     -0.02516561285613
  H   -1.98551756348258      2.44566995888706     -1.36055693329124
