40
Coordinates from ORCA-job sd_inp/doublemontecarlogen3D418
  C   3.05446147116815      3.30919889417504      3.12884802396353
  C   1.88726369070299      2.52790705412990      2.57389137430653
  C   1.10770970106675      3.03242626153794      1.52508770770553
  C   0.04823970015529      2.29783517441908      0.99404729920363
  C   -0.26689782732331      1.02820759962433      1.50204070795155
  C   0.50420356110290      0.52262145073926      2.56308200924251
  C   1.56199428468434      1.26168441403566      3.08381117225703
  C   -1.42962973846406      0.29588492362758      0.96911036269816
  C   -2.72032641595587      0.75709429667713      0.76634955249803
  C   -3.45323280342928     -0.37386699240363      0.35709297029866
  N   -2.70059608757902     -1.46535999098390      0.29004472115291
  N   -1.46305581872028     -1.05162625975792      0.65733368593619
  C   -0.40350063431918     -2.00310406120107      0.61014818574595
  C   -0.65954988323293     -3.31146598085835      1.04190001018012
  C   0.35400129613801     -4.26165177604507      0.99703782661902
  C   1.61574548842212     -3.89631426189114      0.51898656077631
  C   1.87380306261527     -2.59855998491152      0.08018105907224
  C   0.85545559513888     -1.64702829628473      0.11722569443028
  S   2.93691128803088     -5.10772337716132      0.49756667990130
  O   4.17092885555958     -4.40123574317849      0.13634833087507
  O   2.83617282092731     -5.92355066965866      1.71071534443929
  N   2.48557276349833     -6.13197229556981     -0.77469700511063
  C   -4.90713789300611     -0.43610504835845      0.00145131817969
  F   -5.09874360868872     -0.64396493322981     -1.31827299239830
  F   -5.54766091457871     -1.42392960632870      0.65661045462384
  F   -5.51120328953415      0.73211647746929      0.31843199627526
  H   3.13204376265303      3.19379590629883      4.21472740099726
  H   2.96518136844971      4.37629883685356      2.90553473022959
  H   4.00223897596817      2.96145365186462      2.69859856317726
  H   1.33376123178402      4.01350449441935      1.11467669539857
  H   -0.53689836790946      2.70453683519474      0.17412670754208
  H   0.26340709886763     -0.44525628264465      2.99188397592273
  H   2.14028381764300      0.85269420740619      3.90870584011554
  H   -3.08616251952460      1.75599607971887      0.94573446370275
  H   -1.64954078715523     -3.56502032394425      1.40215132677999
  H   0.17302292071889     -5.27307362128690      1.34428669823412
  H   2.86177064661125     -2.34144108237389     -0.28505538790189
  H   1.03836207930532     -0.63955516241898     -0.23624256492806
  H   3.03629391503461     -5.92984842549445     -1.60557913750017
  H   2.61299719317448     -7.09509238220565     -0.47314236259354
