22
Coordinates from ORCA-job sd_inp/doublemontecarlogen3D396
  C   1.50153261731232      0.34731605729422     -1.89800658110568
  C   2.14595084879205      0.14250129968985     -0.67830786686202
  C   1.59140035861059      0.69725698451776      0.47637629960506
  C   0.40695220286175      1.42959803802662      0.42161147397360
  C   -0.22643621540243      1.61659271386376     -0.80560393333317
  C   0.31181595876059      1.08508398986587     -1.98912415313371
  C   -0.38049181428818      1.28202741860765     -3.31883109750333
  C   -1.39909118814242      0.20211730399520     -3.73263055480540
  O   -1.82209278792442      0.12005154164234     -4.85801995153202
  O   -1.82920830419713     -0.63684233266510     -2.76276709449420
  O   2.12822345422433      0.54268206572378      1.75551809517841
  C   3.46266427965003      0.35311681714647      1.92781948836029
  F   4.19953684642978      1.25408981008646      1.25631394218898
  F   3.71507929237985      0.46695049314786      3.22956449412346
  F   3.86677706992790     -0.87169239919028      1.52562745909153
  H   1.93723249189831     -0.07743403210990     -2.79864497957487
  H   3.05733695456874     -0.43970901003982     -0.63414854043687
  H   0.00409148338880      1.85083793542906      1.33652906137855
  H   -1.14175197090266      2.20211144544858     -0.84590451237085
  H   0.34096395697977      1.34328677273504     -4.13823793716462
  H   -0.93183132206824      2.22997941931813     -3.32686212158637
  H   -1.36071421285935     -0.44592233253355     -1.93417098999677
