18
Coordinates from ORCA-job leia_inp/doublemontecarlogen3D209
  C   1.83506554319288      1.05702741213923     -0.11980037699917
  C   0.51915762449217      1.54471601673432     -0.07426012905057
  C   -0.47799652662060      0.59345329554406     -0.00616487395305
  C   -0.20519709406037     -0.77163736063366      0.00265352615386
  C   1.07463090574918     -1.26961087808894     -0.05201884269101
  C   2.11652807804524     -0.31737124587593     -0.09844222650039
  C   3.51372974163781     -0.85884652201477     -0.17182739345429
  O   3.76558656204148     -1.98454751127251     -0.53166718913147
  O   4.51859916412392     -0.01729829217366      0.19000792230533
  O   -1.40064751206964     -1.45826655033461      0.06712292780079
  C   -2.41299997909549     -0.50142557491440      0.08288227426963
  O   -1.83990222522630      0.77455657292806      0.05131110535978
  F   -3.22111312498540     -0.66533542750345     -0.97367277234405
  F   -3.16326411435131     -0.63782057188097      1.18413553601055
  H   2.64177072849480      1.77776892011261     -0.21960917439092
  H   0.29609991211838      2.60476683577624     -0.10225972393032
  H   1.29938309386787     -2.32905078400509     -0.06261636995870
  H   4.15935922264536      0.76512166546346      0.63071578050400
