18
Coordinates from ORCA-job test_1_sl_inp/doublemontecarlogen3D240
  C   -0.86779149475623     -1.83726848370775     -0.20778254143716
  C   0.51073326302710     -1.61945472998185     -0.20637663503470
  C   0.97850433438736     -0.32220665287417     -0.06568132689325
  C   0.14878765714385      0.79114861005344      0.07487664469426
  C   -1.23142474956970      0.55581377337102      0.07669563233590
  C   -1.71319294719924     -0.74208077369059     -0.06294117296642
  F   -3.04539985691949     -0.94266040345865     -0.06239513880001
  C   0.72111634495468      2.18633335108592      0.21608927933250
  C   1.22325887107715      2.51658469314416      1.63311814896538
  O   0.74856295847650      3.39257518490142      2.31053822589289
  O   2.25608123199319      1.76802370654221      2.08234418319679
  F   2.33525655461834     -0.11516756403468     -0.05273958719133
  H   -1.28526525554890     -2.83197398432691     -0.31561019322949
  H   1.21610892254939     -2.43621141531489     -0.31276300486345
  H   -1.93314817495978      1.37637887974460      0.18423364649063
  H   -0.03836766918663      2.93076219022826     -0.02388749049737
  H   1.55750993218690      2.31470341189766     -0.48207980428460
  H   2.52556007772548      1.11660020642080      1.41469113428943
