14
Coordinates from ORCA-job raina_inp/doublemontecarlogen3D587
  C   0.72340863948099      1.22299277016613     -0.95605314979288
  C   1.76205792546343      0.30008340184702     -1.11489637634072
  C   1.95185116665867     -0.64293104435190     -0.11009670490733
  N   1.19128105570712     -0.70802540348766      1.00001989029564
  C   0.22473979214655      0.17596298989782      1.12183024540354
  C   -0.07093013346603      1.16977144873145      0.18559008369330
  F   -0.51652074728010      0.09932310197482      2.23277669956918
  C   3.05096739209494     -1.67340613972343     -0.21305688018514
  O   3.81493283323339     -1.72385673477814     -1.14988960654101
  O   3.10134717619801     -2.52319198763701      0.82366263311245
  H   0.53417166925342      1.97691506404552     -1.71420232199520
  H   2.41310436927427      0.29293337658948     -1.98068022704863
  H   -0.88891326282696      1.85794392978774      0.36355843814182
  H   2.38503212406230     -2.26639477306184      1.43878727659497
