25
Coordinates from ORCA-job sli_prashanth_inp/doublemontecarlogen3D532
  C   6.07069002432718      0.64807181341312      2.97622476496750
  C   4.73419781142405      0.90960880485836      2.32591615329320
  C   4.57535974220151      0.82962394627539      0.93598321157066
  C   3.34469783790003      1.09292124258535      0.33653804991353
  C   2.23573164811941      1.44707957915235      1.11884723793937
  C   2.38910228644487      1.52556482087310      2.51433182760317
  C   3.61657179229811      1.25799040046044      3.10439876166769
  C   0.89825917005934      1.75476187386348      0.54396733847127
  O   -0.04036601005750      2.10978101817983      1.24231105047538
  C   0.69804574041013      1.63577339456517     -0.97436499403539
  C   -0.71604989603711      2.04246507912730     -1.34396571655646
  O   -0.99725653911268      3.07857351230772     -1.89479453014508
  C   -1.85658070748729      1.03556485529115     -1.03676339839623
  F   -2.87606342198145      1.63396884567959     -0.41682239664705
  F   -2.30665656256289      0.52518253660541     -2.20376715912373
  F   -1.43128484830305      0.00331494742333     -0.27992916637685
  H   6.52244381139657      1.58282324337989      3.33097333156520
  H   6.77396116543689      0.18379353144933      2.27958394438400
  H   5.96774687012887     -0.00880648711877      3.84652436275334
  H   5.42607675409465      0.55878964754833      0.31604169391300
  H   3.25981482777841      1.02211276866749     -0.74369358476513
  H   1.52532132155766      1.79805535215040      3.11176678445127
  H   3.71742941821083      1.31940253201818      4.18532286847827
  H   0.90174255896380      0.60598621504158     -1.29295607608382
  H   1.38580520478959      2.30267652620244     -1.50322435931714
