17
Coordinates from ORCA-job leia_inp/doublemontecarlogen3D207
  C   1.54604585828073     -0.07652005071864     -0.09652143283417
  C   0.93039997889996      1.16400784599181      0.04249699809180
  C   -0.46244250156986      1.19723797655894      0.14735867441729
  N   -1.22917473729473      0.10114080919342      0.11811744196342
  C   -0.62706548543151     -1.08281379170514     -0.02033506262879
  C   0.75574844654208     -1.22822720686473     -0.12969802089143
  C   -1.55681205450364     -2.28042656733131     -0.04759415390115
  F   -0.87041655639665     -3.42337773860802     -0.26317003678281
  F   -2.21666485529185     -2.40974544623435      1.11863464545571
  F   -2.47501648647237     -2.15982742238722     -1.02334066613939
  C   -1.19238458587379      2.51190338694870      0.30152550698459
  O   -0.61767491402840      3.57610122361508      0.33446108670133
  O   -2.52305792977510      2.38794744528727      0.39766676419336
  H   2.62595397216168     -0.15215649386428     -0.17991101187836
  H   1.48362810213457      2.09559571559209      0.07186176703884
  H   1.19322929657681     -2.21306192151038     -0.23917726550537
  H   -2.72602554795794      1.43187223603674      0.34015476571512
