21
Coordinates from ORCA-job sli_prashanth_inp/doublemontecarlogen3D528
  C   1.43083206251639     -0.20823054109031     -0.71990775026187
  C   0.60737936681158     -1.31286291866848     -0.52565697827652
  C   -0.74683610294258     -1.13796780039658     -0.18466493117148
  C   -1.24698629593031      0.17586115039236     -0.04833907705878
  C   -0.42032109554760      1.26932978772433     -0.24564209768166
  C   0.92956679179511      1.08834690716662     -0.58379537852693
  C   1.82617032369985      2.27345282941730     -0.73769774187698
  F   1.20347551633287      3.32227501085245     -1.31459594315805
  F   2.27671994487709      2.73953610065875      0.47921175468777
  F   2.93143468925361      1.99905547960547     -1.45927399274732
  N   -1.60602795248720     -2.21236966005475     -0.01952999015923
  N   -1.15524644032975     -3.52595648428853      0.19054874117243
  Cl  2.28996983746291      1.05110602566720      3.36243127740132
  H   2.47177528219505     -0.35721459329496     -0.98718221401783
  H   1.01163875326743     -2.31153201923502     -0.64697202793453
  H   -2.29224699600612      0.32542203474958      0.21027329997984
  H   -0.82150624142011      2.27260507017298     -0.14102989130028
  H   -2.47023429055327     -2.02363817834344      0.46860316451505
  H   -0.35933209879963     -3.53861320248704      0.82985115718590
  H   -0.85781798494553     -3.92538419111909     -0.69628877532350
  H   2.24558293075020      1.65314919257117      2.22143739455264
