18
Coordinates from ORCA-job leia_inp/doublemontecarlogen3D174
  C   -0.93458497538692     -1.09539579750229      0.45901069800874
  C   -2.03503400850331     -0.32335076373342      0.83674366931343
  C   -2.11628371467584      1.02762851936617      0.49599956314180
  C   -1.07120284087937      1.64432354656367     -0.23182531034583
  C   0.02349150743623      0.83672152756070     -0.55388397245591
  C   0.11621394553380     -0.51182526515971     -0.23964520187668
  F   1.07687836817749      1.39476811888810     -1.21323633685766
  C   -1.16523260612574      3.07266803254182     -0.73192530647079
  O   -2.20768373501991      3.56727240117743     -1.07811514031624
  O   -0.01729736716440      3.78300441861248     -0.77814842071097
  C   -3.34398753925973      1.79576527110322      0.96737719669515
  F   -4.24089616787268      1.97413513583597     -0.01374012389911
  F   -3.97691021963933      1.11025082178604      1.95394603862244
  F   -3.01918885737810      2.99569186620731      1.48209945827976
  H   -0.89296981539405     -2.14726911056577      0.72312754463611
  H   -2.83756432004550     -0.77025669961602      1.40971170254936
  H   0.99613181464152     -1.06853071303744     -0.54285020985067
  H   0.74858053155584      3.21805868997174     -0.59970584846294
