20
Coordinates from ORCA-job sli_prashanth_inp/doublemontecarlogen3D525
  B   1.67997199559569     -2.14616285222728     -1.21633165827353
  C   1.23364620438325     -0.67573542533305     -0.93602720259025
  C   1.97413047451291      0.16133863017092     -0.08122965443298
  C   1.58090827865630      1.47153105144752      0.17072839172161
  C   0.42716890649768      1.96676404723445     -0.43842778690056
  C   -0.33786702258157      1.17148274398236     -1.29268644753649
  C   0.07884607445927     -0.13939146422500     -1.52831823411868
  O   0.13248815678955      3.29222917490676     -0.10573193146249
  C   -0.91985979227464      3.94398268789098     -0.65452944885490
  F   -2.10303089011412      3.37334905133998     -0.34841096590191
  F   -0.91507761428731      5.18522915927834     -0.16848966990549
  F   -0.84673190126463      4.01088176479598     -1.99876621464851
  O   2.84030939404780     -2.58997776163952     -0.62946399054121
  O   0.88898688718850     -2.91613857811063     -2.03419642805496
  H   2.87247639380728     -0.22356757596913      0.39235938388532
  H   2.14758752828396      2.12186730319505      0.82908875787085
  H   -1.23406672701819      1.55176835022798     -1.76524449252852
  H   -0.51292219453422     -0.76288935285892     -2.19221080622874
  H   3.07633849686424     -3.50395236150935     -0.82343077542833
  H   1.20307735098825     -3.81461859259745     -2.18494082607020
