18
Coordinates from ORCA-job leia_inp/doublemontecarlogen3D200
  C   -1.44997548801407      1.12954903788188      0.03686948668945
  C   -0.09079511547445      1.31681602712772      0.03946119570049
  C   0.80778198283800      0.17483023248294      0.01088744646212
  O   2.04769777627041      0.22109427904115     -0.00423172305123
  N   0.16770172717373     -1.06566065786329     -0.00453170017276
  C   -1.18544646472109     -1.24339764728498     -0.00578542623805
  C   -2.02674301907097     -0.16804893985441      0.01407533421505
  C   -1.66106114574366     -2.67664585495836      0.03602089931133
  F   -2.93441735859001     -2.78080197989234     -0.36617501947766
  F   -0.89121643699888     -3.45306505214984     -0.76029632074741
  F   -1.57149721273030     -3.17669556040427      1.28405209121613
  C   0.45608577355824      2.72423481577332      0.06176310541513
  O   -0.28457829828476      3.68478862341582      0.08702100923823
  O   1.78624640556049      2.83499770597654      0.05181640062844
  H   -2.07691679204181      2.01634453166194      0.05278464847134
  H   0.78563463622693     -1.86889429699555     -0.05888648098435
  H   -3.09857258678528     -0.31457330108857      0.01086122431017
  H   2.18737161682750      1.92824803713030      0.02880382901357
