15
Coordinates from ORCA-job test_4_sl_inp/doublemontecarlogen3D304
  C   -1.23974891407996      0.68162901599834      0.12419752811827
  C   -1.24483446794408     -0.70920499298510      0.10321262454389
  C   -0.05335519495813     -1.40582825913057     -0.09661045543020
  C   1.12654375542348     -0.68646309839681     -0.26771028638273
  C   1.18652183320134      0.71529132795956     -0.24188678842316
  C   -0.04315411459495      1.37220320478563     -0.04211669374418
  F   -0.09740993868010      2.70360783674637     -0.02749232383465
  C   2.46524895523658      1.51634478329676     -0.36982334982607
  O   2.53870459844955      2.66957116734093     -0.02624598791765
  O   3.53656304020972      0.89197319154437     -0.90345266654048
  F   2.26591668860558     -1.39289203160576     -0.47474990214391
  Cl  -0.02476699822543     -3.14789945345195     -0.13591122860998
  H   -2.15282158344610      1.24776378679906      0.26831594991428
  H   -2.16822173699973     -1.26175759684004      0.23601685479709
  H   3.35553407780221     -0.04500888206081     -1.06894327452052
