20
Coordinates from ORCA-job sli_prashanth_inp/doublemontecarlogen3D523
  C   1.57412179125813      1.77510056433620     -4.71769310755867
  C   1.31382644587653      1.11770219492567     -3.52089546390058
  C   0.78314705806595      1.83349661230190     -2.44531126640171
  C   0.49849233817434      3.19834920551639     -2.53721742259844
  C   0.75926087046496      3.85403236084267     -3.73818464475448
  C   1.29242625090947      3.13779975311948     -4.80765718340257
  N   1.56263675101794      3.84013701618732     -6.07267380425839
  O   2.03347837945639      3.18133397692687     -6.99912496098117
  O   1.29986930169128      5.04088765864065     -6.12423282455235
  O   0.49986106099079      1.06070149902507     -1.31779706057923
  C   0.59521253948688      1.54382432136944     -0.05979421558794
  O   0.92554437406275      2.64413162576354      0.28625226915985
  C   0.18587206457693      0.41994170842524      0.91994720957372
  F   0.36287747756327      0.82464634865371      2.17746370479739
  F   -1.11020071894180      0.11080565086453      0.73922578238539
  F   0.92120487185894     -0.68352725971615      0.70743884406154
  H   1.98647165853876      1.25582021996326     -5.57362483326141
  H   1.51225227554845      0.05785868790899     -3.40539991567734
  H   0.09263558774375      3.73994862225802     -1.69433677363179
  H   0.55312962165628      4.91053923268714     -3.85601433283177
