15
Coordinates from ORCA-job ewa_inp/doublemontecarlogen3D147
  C   -0.80566760744167     -1.94343940814402     -0.04201591786670
  C   -1.84355625785718     -1.01637941485175      0.01920985098610
  C   -1.51212446366185      0.32689947661040      0.07889063037008
  C   -0.20127054496906      0.82668464752132      0.06652861688450
  C   0.81880247618298     -0.14996842537195      0.01357384463662
  C   0.51955778079010     -1.51391126367282     -0.03349148106748
  Cl  2.51140042153198      0.27522009444766      0.05848619333331
  C   0.09052206527054      2.31347484030756      0.03363126910784
  O   1.06471345474256      2.77607407064363     -0.50383808876603
  O   -0.79627860922968      3.12493154696194      0.65151574508664
  F   -2.54670198276344      1.21242419735099      0.16250345126122
  H   -1.02878749465579     -3.00470060113169     -0.08818715090996
  H   -2.88752900704689     -1.30828682610378      0.02307242238690
  H   1.33332284706591     -2.22904015447841     -0.06367029822239
  H   -1.58401307795851      2.63452721991090      0.92864091277933
