23
Coordinates from ORCA-job test_5_sl_inp/doublemontecarlogen3D318
  C   2.08989678971165      2.10899983948867     -0.01050535679962
  C   0.90552052387798      1.18006694700507     -0.07579926522631
  C   0.54293775772784      0.41430242047111      1.03560150090294
  C   -0.53388714580412     -0.46126563989626      1.04066057623531
  C   -1.31172845886420     -0.60142864668302     -0.11579524275558
  C   -0.97467426477162      0.15556626550397     -1.24771779086799
  C   0.11517272589010      1.02779537337705     -1.22110018345820
  C   -2.46209814052449     -1.59706211194050     -0.15319278739439
  C   -3.75342288932907     -0.99671495006539     -0.76406756184892
  O   -4.47458117909349     -1.61453754282209     -1.50920531993496
  O   -4.08680708728721      0.24952955101308     -0.35145361186983
  N   -2.05929790644982     -2.84502549521324     -0.79445284213535
  F   1.28164589083986      0.53529075350725      2.16186954944274
  H   3.01272797059118      1.55851048674856      0.20332523998645
  H   1.97158076798453      2.84966163343040      0.78789908611080
  H   2.22091711595025      2.64126272730373     -0.95585795010012
  H   -0.74583645526186     -1.03480097930116      1.93752499202527
  H   -1.56765997732449      0.06923491473043     -2.15499064154086
  H   0.35974652490018      1.60762148629879     -2.10724934764482
  H   -2.73673614417580     -1.82952989010107      0.88767087250314
  H   -3.35440399237209      0.62520328813042      0.16231430884496
  H   -1.62457540138546     -2.63021659265124     -1.68981048547762
  H   -2.90639702482984     -3.36494383833453     -1.02150773899705
