18
Coordinates from ORCA-job test_1_sl_inp/doublemontecarlogen3D249
  C   -0.15575954543957     -1.99589552578832      0.07214429543721
  C   -1.18981747489505     -1.20289952202205     -0.43063039814703
  C   -0.98584014561944      0.16660659432385     -0.49022976695295
  C   0.18197010282223      0.81126769455191     -0.08074751491231
  C   1.18114676394760     -0.03328504257747      0.41525490383122
  C   1.03816722381746     -1.41457027846365      0.49849328309630
  F   2.34145601712761      0.51935817709934      0.81777669329620
  C   0.36589416206307      2.30929371693019     -0.17769836427881
  C   -0.33286985270048      3.10967868318125      0.93679277751720
  O   0.26090732400320      3.81579401037783      1.71090336710892
  O   -1.68043841262761      2.99632813377614      0.99031087928024
  F   -1.99613768580840      0.95389183924206     -0.97469680374290
  H   -0.28357463707217     -3.07176085712864      0.13307889091615
  H   -2.13030224117995     -1.62214357827068     -0.76915985334674
  H   1.85677482302274     -2.00679927666608      0.89152008784016
  H   -0.01965807757588      2.66174585913533     -1.14235542527448
  H   1.42493855561934      2.55589142266551     -0.11882362323825
  H   -2.00623689950471      2.40805794963348      0.29044657156988
