17
Coordinates from ORCA-job leia_inp/doublemontecarlogen3D170
  C   -1.33928205662299      1.29904068496156     -0.04378859384276
  C   0.04678710794465      1.26809600755060     -0.14525116283794
  C   0.68498439410763      0.03538292645333     -0.22481646059196
  C   0.00499922288962     -1.18775139478643     -0.20960814677692
  C   -1.39062520867631     -1.13754094686647     -0.10607157195049
  C   -2.03556263611400      0.08912584769143     -0.02564396191623
  N   -3.50610226394738      0.11876430923820      0.08298549279379
  O   -4.09594644884229     -0.95818818376979      0.09776175854262
  O   -4.04260855655500      1.22387654147156      0.15126320647182
  C   0.63360602544888     -2.56122722912466     -0.29526494918983
  O   -0.04454498050915     -3.56056201912131     -0.26932997369657
  O   1.97326654316062     -2.63592372187580     -0.40331838191234
  F   2.04257424006211      0.04836161056381     -0.32168836387674
  H   -1.88366881929278      2.23283247896135      0.02100369915723
  H   0.63874403479815      2.17622945486443     -0.16374819334635
  H   -1.94922949230429     -2.06542953133490     -0.09056882578328
  H   2.37351889445254     -1.75276683487692     -0.40982557124408
