14
Coordinates from ORCA-job sli_prashanth_inp/doublemontecarlogen3D53
  C   1.19364951735916     -1.51899382178537      0.24238816190321
  C   -0.00930594820244     -2.18075617420359      0.00449226769576
  C   -1.20789241347751     -1.51316140253027     -0.23906982237087
  C   -1.18383816822186     -0.12637400064495     -0.24291503507038
  C   -0.00043510364361      0.57675728214182     -0.00683015161960
  C   1.17845209255332     -0.13208354189321      0.23483378578083
  F   2.29930308447392      0.56203950646221      0.46124114918496
  F   0.00386648552489      1.90918762330998     -0.01194331072243
  F   -2.30031298928313      0.57292787190637     -0.47508267854155
  N   -0.01426427817836     -3.65406891873307      0.01086751584113
  O   1.05400690366977     -4.22268090819758      0.22696025270339
  O   -1.08638480267671     -4.21727333514585     -0.20026876522472
  H   2.10765118728364     -2.06809499562255      0.42662051775171
  H   -2.12542556718107     -2.05783518506392     -0.41877388731145
