14
Coordinates from ORCA-job ewa_inp/doublemontecarlogen3D169
  C   0.92212017686991      0.03705531775684      0.09267239792558
  C   2.42877509835927      0.02353035913535      0.01613450496472
  C   3.17181477356766      1.20660706578638      0.01336182963285
  N   4.51215354546490      1.26102010082662     -0.05249211363054
  C   5.14890856789160      0.11424374451631     -0.11836718066518
  C   4.54534413928134     -1.14455559853962     -0.12594773088512
  C   3.15818079388812     -1.17500308255723     -0.05664700443209
  F   6.49029191599207      0.17681870161562     -0.18094173638166
  H   0.54004867841271      1.05841338057795      0.17692120441364
  H   0.56016111138125     -0.52697894802627      0.95999984460201
  H   0.47120540655859     -0.41480316740196     -0.79859967005802
  H   2.66274880566980      2.16805668423839      0.06793475123077
  H   5.14763318956168     -2.04413276772247     -0.18290779889550
  H   2.63854379710110     -2.13027179020591     -0.05819129782148
