15
Coordinates from ORCA-job test_4_sl_inp/doublemontecarlogen3D313
  C   -0.11190575992015     -1.80245203666733     -0.00770061767418
  C   -1.30817481589366     -1.08822427380702     -0.01015650115440
  C   -1.29774790758438      0.31246987682489     -0.01965736371682
  C   -0.05931249740640      0.98081022864186     -0.01219821271153
  C   1.12778990060673      0.24216698145783      0.00271332519028
  C   1.11896067219774     -1.14634523709372     -0.00586561174793
  F   2.30043316628366      0.88529633466294     -0.01292959414734
  N   0.00002336762366      2.44600606773138     -0.01029367131768
  O   0.73932600442392      2.97157434943044      0.81890328603307
  O   -0.68551475420592      3.03814154100155     -0.83876988820840
  O   -2.42785805365074      1.05497471805631      0.00210045941487
  H   -0.14024644061965     -2.88759366382149     -0.00719686919608
  H   -2.26081583112692     -1.61185345561468     -0.00300242488925
  H   2.06167863030838     -1.68057645535121     -0.01239855829585
  H   -3.19487568103627      0.46788502454825      0.03711224242124
