18
Coordinates from ORCA-job sd_inp/doublemontecarlogen3D405
  C   1.34262957828943     -0.24936076631128     -0.01249069071666
  C   0.43535926018901     -1.30613888916058      0.02802033696918
  C   -0.92599688591127     -1.01672697732841     -0.06386710717275
  C   -1.40893678299606      0.28531892957778     -0.20146414487824
  C   -0.49038163199270      1.33133399757884     -0.24349650677028
  C   0.87854978712599      1.06244203030058     -0.14565421889323
  C   1.85754633137167      2.21190629267884     -0.14311057233869
  F   1.45024398027929      3.20585185377716     -0.95949740466195
  F   1.98616577696073      2.73838049823247      1.09404435585812
  F   3.08478618460242      1.82379622408444     -0.54562848661084
  S   -2.10073050672131     -2.36995439784825     -0.03204167627328
  O   -3.36584216438281     -1.91784888915905     -0.59628869615751
  O   -1.43842042553312     -3.59200011237512     -0.46923490398486
  Cl  -2.41735082499029     -2.58159757839035      2.06414766504465
  H   2.40770859105342     -0.44265112806184      0.04737956896517
  H   0.77383994277807     -2.33234196591640      0.11696749301994
  H   -2.47416477523103      0.46804353528315     -0.28643080329560
  H   -0.83439543489146      2.35294734303801     -0.36350420810316
