14
Coordinates from ORCA-job test_7_sl_inp/doublemontecarlogen3D370
  C   1.41273395334561     -1.25029627078675      0.25453422260628
  C   0.33684178973266     -2.09231415456530     -0.07540634528865
  C   -0.93878225309977     -1.56294821013913     -0.31883488957035
  C   -1.12363974760822     -0.19097979016431     -0.22626440162642
  C   -0.07251426818631      0.66489825000850      0.10020080413247
  C   1.18847766040107      0.11621742682267      0.33657095977460
  F   2.19299521387915      0.94527768931839      0.65007626780867
  F   -0.26828975573403      1.98447095544986      0.18551344157951
  F   -2.33219830213749      0.34141720914646     -0.45080874712811
  N   0.51444136852113     -3.45927533036566     -0.16506841730469
  C   1.22411423522798     -4.42255737666177     -0.07151210165901
  S   2.06419869507200     -5.76189797710325      0.02133611881282
  H   2.40341659277461     -1.64581558330233      0.44440149047578
  H   -1.77181518218837     -2.20608683765737     -0.57413840261291
