25
Coordinates from ORCA-job sli_prashanth_inp/doublemontecarlogen3D540
  O   1.05963930464348     -1.24457969099852     -2.25510680379516
  C   1.64235514869807     -0.02293996319219     -2.18320467656414
  O   1.00505769733412      0.97406015344258     -1.93492295977790
  C   3.09523946815692      0.00877325748673     -2.42490814565003
  C   3.98823684275320      1.04265767981522     -2.46048090454252
  C   5.25591385950090      0.47253501144691     -2.75740783927396
  C   5.07068344370795     -0.88684897467658     -2.88601974310107
  O   3.74186988484458     -1.17296168229889     -2.68093563755016
  C   5.92591669689960     -2.04747561075337     -3.13050343129188
  C   5.43612427711263     -3.32309134014268     -2.77856764349483
  C   6.17812413549066     -4.47677515980217     -2.98952083533279
  C   7.45339985772087     -4.39882041791020     -3.55868185530213
  C   7.96474240231632     -3.15677899203116     -3.91224253818694
  C   7.21378562638050     -1.99735443012430     -3.70365027701189
  Cl  7.94511719322201     -0.48890172868266     -4.22127626914906
  C   5.63947750717532     -5.82002406240280     -2.57047617975318
  F   5.81737188812080     -6.74334015676651     -3.54127340291218
  F   6.27271237573522     -6.28215225974907     -1.46932157981394
  F   4.32049622908391     -5.77371443477836     -2.28649448804572
  H   1.72271080782167     -1.91577010866735     -2.47943137704005
  H   3.75064388150550      2.08263007550505     -2.29283405461267
  H   6.19158585053769      0.99845445894262     -2.84829168283350
  H   4.45445276762080     -3.39866890941779     -2.33009706746599
  H   8.03597603625249     -5.29781265342671     -3.73011009312654
  H   8.94763681736472     -3.07223006081776     -4.36185051437170
