31
Coordinates from ORCA-job test_3_sl_inp/doublemontecarlogen3D28
  O   3.46373175561722      0.25302750317057     -2.91904006936205
  C   2.85130197300043     -0.41957124046868     -1.91386462835428
  O   1.94815270157088      0.09879967877570     -1.30297633605203
  C   3.44288634659843     -1.81517774619455     -1.56888196201071
  C   2.38036231243435     -2.61650705201259     -0.76920971081693
  C   2.94771932731920     -3.89176012074132     -0.13159870939840
  C   4.11634881446488     -3.56881347949214      0.80966534368950
  C   5.21042790850001     -2.78444432416281      0.07165891116924
  C   4.64259050572305     -1.52732650835803     -0.61029974625007
  C   3.84497757872611     -2.52537429369262     -2.87681065207507
  C   5.17978119058210     -2.69531513820771     -3.28296402850233
  C   5.50703397565598     -3.29187898457026     -4.50465531773014
  C   4.48307262551117     -3.72023632481328     -5.33672378316611
  F   4.78679687008708     -4.29449466963452     -6.51714921308522
  C   3.14648828143362     -3.56280444653337     -4.98229857077164
  C   2.84125941511716     -2.96669435976197     -3.76188697541045
  H   4.09678981562245     -0.33534561739538     -3.36120639835137
  H   1.52370257103625     -2.85539127970281     -1.40682745588016
  H   1.99433552194235     -1.95121369961355      0.00949224117006
  H   3.28588459164384     -4.58458806001819     -0.91433072814070
  H   2.14962395595126     -4.40649983876179      0.41645389216167
  H   4.53381919816260     -4.48862047356375      1.23631562183951
  H   3.74512430766934     -2.96994652662295      1.65339217398067
  H   5.68178354117213     -3.44133569529050     -0.66938130679870
  H   6.00192525898612     -2.48304072192810      0.76871646881364
  H   5.43118115371544     -0.97527519439613     -1.13467860943498
  H   4.26867197162189     -0.84796338267533      0.16550453584288
  H   5.99273615102975     -2.36894208025150     -2.64469351407292
  H   6.53967981505916     -3.42617777681786     -4.80893688481958
  H   2.36833938749938     -3.89768851642189     -5.66003962259942
  H   1.79600117654630     -2.83103962984268     -3.50206496558391
