24
Coordinates from ORCA-job sli_prashanth_inp/doublemontecarlogen3D519
  O   2.28839135140140      0.22482620089526     -0.73236459273696
  C   2.38197268578321     -1.02473547852561     -0.23734382831596
  O   1.73652380609243     -1.92850906672826     -0.72015751043392
  C   3.30543696981143     -1.26103212386785      0.92915515368095
  C   3.33235221064869     -2.58377586097477      1.45811606245513
  N   4.06171541727986     -2.98297369573384      2.47537363447701
  C   4.87299153253282     -2.05772176576007      3.06537539228019
  C   5.67149145812148     -2.47736995260370      4.16133433103168
  C   6.51937502031842     -1.59376041086066      4.78826096083770
  C   6.61711443664604     -0.24932519388624      4.34812160551086
  C   5.85213355928598      0.18494963376538      3.29185082423502
  C   4.95686401173730     -0.69866231960852      2.63049844666062
  C   4.12298887625941     -0.31890661931763      1.53631698138741
  O   4.11994680725030      0.96125970247642      1.06226346316812
  C   7.36685321130555     -2.02192996411210      5.95849874787400
  F   8.67877789621417     -1.80002396306660      5.71510484179530
  F   7.05267930444882     -1.31472564287548      7.06828737064780
  F   7.21916688598500     -3.32786282164200      6.24973041612744
  H   2.86774304310896      0.83371219010457     -0.24367231682598
  H   2.68761758267123     -3.31583257102264      0.97845658318251
  H   5.58941117208650     -3.51022124053115      4.47795256158367
  H   7.30217013788065      0.42972196092982      4.84478466843991
  H   5.96713556511564      1.21754565453248      2.96799052114923
  H   4.61933705801455      1.55427334841323      1.63776568178822
