14
Coordinates from ORCA-job test_4_sl_inp/doublemontecarlogen3D306
  C   -1.39257066586996     -0.09884195901984     -0.00385107148181
  C   -0.76199306063318      1.14232927501373     -0.00578976229509
  C   0.62546638012359      1.22121958930480     -0.01804399040114
  C   1.38688748341347      0.05258120134577     -0.02919711694871
  C   0.76298589655985     -1.19326860546339     -0.02754812233997
  C   -0.63890787939783     -1.28589308611637     -0.01441979699149
  N   -1.26652997803213     -2.53334671298948      0.04975184474130
  Cl  3.13258512872119      0.15995777055209     -0.05045323989230
  F   1.22707573542739      2.42573508721597     -0.02251795357432
  H   -2.47779260166644     -0.15035358369461      0.01129418616311
  H   -1.33528973649393      2.06358253530758      0.00038327803192
  H   1.37388512554845     -2.09052166736344     -0.03119030009676
  H   -0.72274512050968     -3.30550093608609     -0.31123695179251
  H   -2.21359670719079     -2.55038890800671     -0.30388100312221
