19
Coordinates from ORCA-job sli_prashanth_inp/doublemontecarlogen3D508
  C   -1.02895883215686      1.01187491038001     -0.18309117991936
  C   0.32619658511581      1.31915387422602     -0.29124694810901
  C   1.25726845191598      0.32467449792198     -0.00929982109979
  C   0.87417829998521     -0.95685335693205      0.37222320831168
  C   -0.48536371552982     -1.24772946081273      0.47341602290832
  C   -1.45274955023867     -0.26951253077723      0.19753092680598
  C   -2.92823754617610     -0.53912781368207      0.38876683175202
  C   -3.34577778655780     -1.98753470120645      0.04453947113715
  O   -3.03612038691299     -2.53315737866741     -0.98630746781381
  O   -4.11274620722309     -2.56237322662744      0.98449982744984
  O   -3.37149478262557     -0.21514808398366      1.72661606991983
  F   2.56940177889339      0.60985451075000     -0.11451874185373
  H   -1.76834966249167      1.77806913126064     -0.40068634187186
  H   0.66622170328098      2.30430905761346     -0.59181161181030
  H   1.63235393672091     -1.70620214839371      0.57243482067530
  H   -0.79044407853648     -2.25493955795556      0.74137869263614
  H   -3.50493709373075      0.10685068216851     -0.28376728249036
  H   -4.20476545359438     -1.89453913761653      1.69553214403983
  H   -2.59334566013811     -0.22980926766579      2.30150137933214
