12
Coordinates from ORCA-job sd_inp/doublemontecarlogen3D401
  C   -0.45266986056341     -1.09312771168674      0.00059780246330
  C   0.89256086701181     -0.81266295102939      0.00173652575814
  N   0.98220555591231      0.56507127354507      0.00789395038763
  C   -0.29627222420666      1.04115916572111      0.00984173265256
  N   -1.18494621114096      0.06893396054259      0.00539050337195
  C   2.09017794303745     -1.68549690895730     -0.00353921843545
  F   2.87072678800147     -1.46598461321121     -1.09149619295026
  F   2.88129224637634     -1.46242252224009      1.07613790759889
  F   1.73632408434741     -2.98170524707220     -0.00004255285095
  H   -0.92144452775559     -2.06680513721704     -0.00347942556668
  H   1.83438371170418      1.10632730423626      0.01116138082229
  H   -0.51575837272435      2.10024338736892      0.01463758674858
