16
Coordinates from ORCA-job ewa_inp/doublemontecarlogen3D103
  C   -1.22961431818928     -1.20317170388793     -0.01390116744785
  C   -1.86507831964193      0.04625935796760      0.01053820281983
  C   -1.04694625886492      1.16784926906999      0.06512367359460
  N   0.28963590198429      1.13438537816173      0.09095135907472
  C   0.88665123187174     -0.06438483440380      0.07323586618497
  C   0.15218946381329     -1.27253213755544      0.02002149865121
  N   2.26235650046063     -0.06518646150294      0.15345808366531
  C   -1.63719682718159      2.56441364624988      0.09217763899587
  F   -1.22804225454238      3.29347030788145     -0.96561316740768
  F   -2.98999756038891      2.53251714329764      0.06119914828003
  F   -1.27583849727267      3.23195032325632      1.20575182657440
  H   -1.81825008678404     -2.11517677066306     -0.05714348525457
  H   -2.94270523268381      0.14145436492431     -0.01394048164889
  H   0.66807467345236     -2.22821669107579      0.01237927289522
  H   2.69617034272794      0.82947916607663     -0.02444340257252
  H   2.75697124123929     -0.86844035779659     -0.20296486640464
