16
Coordinates from ORCA-job leia_inp/doublemontecarlogen3D202
  C   -1.87882733630354      0.05098582716301      0.20543172484415
  C   -1.23221433443157     -1.17545619841416      0.05134124021511
  C   0.15054757526974     -1.22664101952271     -0.12089793072403
  C   0.90252068693393     -0.04736742203140     -0.13936970379920
  C   0.25720086018506      1.19341538164178      0.01916247013060
  C   -1.12841464656220      1.22695377511770      0.18861417892379
  C   1.06341659250910      2.46608492326098      0.00608582820898
  F   1.71679708252928      2.64079831969024     -1.16297613758593
  F   0.27669205316758      3.55410189840262      0.18589108923452
  F   1.99389551115318      2.48619238843335      0.98508071194727
  O   2.25295339475850     -0.04566759060448     -0.30604337629641
  H   -2.95497812761085      0.09332739129047      0.33831311398572
  H   -1.80147258736403     -2.10062719536821      0.06459982487625
  H   0.65441245460035     -2.18355144800615     -0.24147412195652
  H   -1.61458121624962      2.18846577367889      0.30835592708606
  H   2.56485203741507     -0.95524480473195     -0.39962483909035
