18
Coordinates from ORCA-job sli_testing_inp/doublemontecarlogen3D608
  C   1.23894474057265     -0.07559864975632     -0.60689025495542
  C   0.67038573607970     -1.34421621058432     -0.51931951385584
  C   -0.66138650028468     -1.48379209761419     -0.12438176073475
  C   -1.44073034178545     -0.36360044921680      0.16936465972922
  C   -0.87203687347475      0.92249410759541      0.08192256276560
  C   0.47161575062407      1.04807206841825     -0.29743452394781
  C   -1.67027691177695      2.18298760944321      0.30826588804082
  O   -2.74454816082509      2.40381323481113     -0.18771446181245
  O   -1.05621166853060      3.11945735716530      1.08164090128214
  C   -2.88037476607651     -0.57548433288622      0.59533307155669
  F   -3.74753307440046     -0.32125394717960     -0.39796313506585
  F   -3.08467239937126     -1.85935824719970      0.97986304252051
  F   -3.20711808523468      0.20552729376804      1.64710185818851
  H   2.27308923867930      0.04399361889804     -0.91571444081471
  H   1.25826984579386     -2.22682925866955     -0.75209230966004
  H   -1.10137769133053     -2.46993659276017     -0.03345698227420
  H   0.90896485447925      2.03901192633606     -0.38464089550772
  H   -0.27230369313786      2.73629256943143      1.50122629454531
