33
Coordinates from ORCA-job raina_inp/doublemontecarlogen3D626
  C   -1.67953163871266      2.18932548888783      0.53159025972694
  C   -0.52284513581304      3.06685151376615      0.03313974770705
  C   0.80339866330483      2.67910072629203      0.70330094337185
  C   1.10184282611530      1.17166661486876      0.52096575802135
  C   -0.05675154669722      0.24701744820590      1.00394633591570
  C   -1.38243471033232      0.69803125802625      0.31584202084304
  C   -0.26554327967973      0.17059692288657      2.51639099307155
  O   0.19587707970126      1.02770956099803      3.27458951771784
  C   -1.06918679559415     -0.94864845602417      3.09486947639319
  C   -1.51850486480447     -2.05344603877632      2.34862732595526
  C   -2.23083462207221     -3.08369659196935      2.95689263776931
  C   -2.49284510892609     -2.99931708307906      4.32141680066505
  C   -2.06746165118818     -1.91951912137740      5.09292917249927
  C   -1.35435524300764     -0.90178538102315      4.47298666170240
  F   -3.17471929520681     -3.99294516891780      4.91491366540528
  C   2.49066317869926      0.77883432734581      1.04824379594824
  O   3.33371921366720      0.28252524587711      0.33557907353514
  O   2.75081818920439      1.04484335247338      2.34381534844530
  H   -2.60894320447082      2.45171509371578      0.01239723525370
  H   -1.85254898384267      2.38272430772461      1.59879208985802
  H   -0.73957189901975      4.12491839044968      0.22093375622168
  H   -0.42826275562489      2.95503476814644     -1.05650254347667
  H   0.76031625153965      2.93409367964480      1.76615809223165
  H   1.62830622302604      3.25506038178493      0.26778130934101
  H   1.18255795749544      0.98221820883087     -0.55521727304544
  H   0.17250895008192     -0.76712968137744      0.65486477343890
  H   -2.21942864429652      0.08675356113867      0.66863733010380
  H   -1.27743027891964      0.50033552438392     -0.75898745629483
  H   -1.30890050412588     -2.12752744970866      1.28736688415293
  H   -2.57760827680495     -3.94524221124315      2.39683757651914
  H   -2.29419840439517     -1.89676493923408      6.15340952313539
  H   -0.99689402697664     -0.05075210547494      5.04214176074546
  H   1.92813233767617      1.32472785275798      2.79449740712148
