14
Coordinates from ORCA-job sd_inp/doublemontecarlogen3D381
  C   1.47116274509704     -0.85501111957682      0.23393282261157
  C   0.41287149289419     -1.72618721136556     -0.07514431527604
  C   -0.88213795112855     -1.23787299620710     -0.29964234897677
  C   -1.09139580968226      0.13213437140910     -0.20479750379299
  C   -0.07474537606004      1.03193785644597      0.09816874670358
  C   1.19531306318529      0.50362168727256      0.31104850395849
  F   2.19932748258215      1.34782089579756      0.60574153133867
  F   -2.33097087986997      0.60934228459041     -0.41330226763428
  N   0.63098950818898     -3.08848995657990     -0.16236654133628
  C   1.37158668918481     -4.02861948649820     -0.07760818204316
  S   2.25437140938562     -5.34127751041625      0.00588100998766
  H   2.47469459428385     -1.22353777831938      0.40870423838931
  H   -1.69842391151337     -1.90772054969108     -0.53897280350459
  H   -0.26213305654774      2.09631951313868      0.16594710957482
