21
Coordinates from ORCA-job raina_inp/doublemontecarlogen3D591
  C   -0.78217662823426      1.94921839007991      0.00048323897822
  C   -2.06559302594721      1.08286619537405     -0.00531917538480
  C   -1.59827318728248     -0.38291189123707     -0.01741557179033
  O   -2.31493729561742     -1.36468715271311     -0.02873236217702
  C   -0.11268856942519     -0.36769006236305     -0.01080717900802
  C   0.35934068863830      0.94962447209533     -0.00060588131249
  C   1.73366526887901      1.19027831056790      0.00741788683615
  C   2.61011061868861      0.10353651318668      0.00660713631508
  C   2.12432317620133     -1.21330900718471     -0.00254292957162
  C   0.75142661356040     -1.46099743914333     -0.01216570697080
  C   3.07016025885780     -2.38505708994208      0.00016981805389
  F   2.89536627633665     -3.16188825930117     -1.09296513329049
  F   4.36465146629156     -2.00064378394257      0.01950299816560
  F   2.86737449199696     -3.17718653797833      1.07744947971679
  H   -0.72878547751540      2.60087071779593      0.88033536274601
  H   -0.72525193137066      2.60626897897959     -0.87516862597499
  H   -2.69871411637427      1.26227095923447     -0.88029488040654
  H   -2.69477308548065      1.24728968942845      0.87557526232833
  H   2.12601786860695      2.20363272147129      0.01505389894107
  H   3.68183219806402      0.26952313661438      0.01379825569104
  H   0.35337439112596     -2.47137886102257     -0.01940589188509
