17
Coordinates from ORCA-job sli_prashanth_inp/doublemontecarlogen3D515
  C   -0.11109850812278      1.22228778413788      0.17705998452081
  C   1.12101453886111      0.77226754603229     -0.29363750683676
  C   1.33004192196816     -0.59840883473877     -0.41198615939816
  C   0.34871550037041     -1.52373566676253     -0.07558416573506
  C   -0.87993110525415     -1.05652271709502      0.39205291955767
  C   -1.12153312201496      0.31557250435127      0.52821367179994
  C   -2.46019727300483      0.82744984789192      1.03581375962882
  C   -3.26087410822614      1.46671312526590     -0.08579354605130
  O   -3.33836009435602      2.62564266093148     -0.33844867262010
  Cl  -4.12370666979768      0.23242460797681     -1.12619588919347
  F   2.52014048334406     -1.04165853082608     -0.86368226311322
  H   -0.28975554300602      2.29029928899029      0.26967708599713
  H   1.91283485193497      1.46173256364267     -0.56611806218740
  H   0.55152533984200     -2.58401257013852     -0.18149230461254
  H   -1.65634745575716     -1.76975373311279      0.65379374004340
  H   -2.31667447254574      1.60958150593259      1.78816286771131
  H   -3.04212428423523      0.01430061752059      1.47493454048893
