21
Coordinates from ORCA-job sd_inp/doublemontecarlogen3D406
  C   0.85775579437722     -0.42202000747805     -1.01659326467361
  C   0.15712980375135     -1.61829530868280     -0.90206688125013
  C   -1.09499947543333     -1.63459226621367     -0.27852463042945
  C   -1.65173484653080     -0.45070208628045      0.21206612640282
  C   -0.94508686747471      0.74539677883159      0.10132831127839
  C   0.32193984695439      0.76451203630619     -0.49910551886224
  C   1.14842523997573      2.01151244422377     -0.62966409379562
  O   2.02974693320958      2.13228258354803     -1.47506313239451
  N   0.86684651839187      3.01577222500517      0.26864419539441
  N   1.70585295113520      4.15149672970121      0.33475422611741
  C   -1.86807812278583     -2.92405779564666     -0.18743083508975
  F   -2.63913362378472     -3.12141668810185     -1.28117905477536
  F   -1.04629870594759     -3.99177854795367     -0.08763636445069
  F   -2.69141562525005     -2.94051497702719      0.88439920290193
  H   1.82803168720316     -0.38342478276839     -1.49985132798744
  H   0.58067982557152     -2.54079295681181     -1.28467232368681
  H   -2.62993917957446     -0.46754653965103      0.68067549813325
  H   -1.39632583002855      1.66558496995208      0.46003843305116
  H   0.45037379003844      2.76737953907266      1.15527668313832
  H   1.37926914531231      4.80800645356585     -0.37384700972364
  H   2.62721074088926      3.84920819640901      0.01159176070157
