19
Coordinates from ORCA-job test_6_sl_inp/doublemontecarlogen3D349
  C   -1.69690400661201      0.34792211749463      0.22062677444542
  C   -1.02420696480910     -0.87904388431044      0.27279238613249
  C   0.36664287783670     -0.92112566209307      0.13560453853217
  C   1.09369835162775      0.26029452553318     -0.02876690406306
  C   0.42652817169022      1.49012398594284     -0.06829454835881
  C   -0.96177558884530      1.52275475512551      0.05064753834805
  C   -1.65308780952952      2.86179681025479     -0.01587330755676
  F   -1.44869978619897      3.46660853471008     -1.20579710193198
  F   -2.98786529347054      2.75324968143142      0.15991013781241
  F   -1.18557518227562      3.70236932931814      0.93353005634096
  O   2.44694657501903      0.28333429533905     -0.15450474126488
  C   -1.72821015904815     -2.19645786856319      0.44473516518570
  O   -1.21630904559809     -3.25522719528878      0.16560737925551
  O   -2.99004744246598     -2.15923211664252      0.94109276536658
  H   -2.77858197066044      0.41147655999160      0.26799112227812
  H   0.85709552298926     -1.89055199859881      0.15873902638338
  H   1.00176957885973      2.40074130412139     -0.19589856973904
  H   2.79168547848937     -0.61906700572570     -0.11948963758133
  H   -3.20470330699835     -1.27162616804014      1.26029792041507
