18
Coordinates from ORCA-job sli_testing_inp/doublemontecarlogen3D606
  C   1.54311829404681      0.04681266433782     -0.03727800963299
  C   0.70501235042123     -1.05480112788399     -0.22368814044492
  C   -0.68586540200542     -0.89118446472551     -0.23667542588962
  C   -1.23284403965139      0.38463839987101     -0.03980853899636
  C   -0.39441892580952      1.48080739832603      0.13435956908393
  C   0.99693560221631      1.31579996681687      0.13403931309753
  C   -0.95581857537752      2.86371666092778      0.34795891736383
  F   -0.46679169876463      3.73616848429261     -0.56367441105710
  F   -2.29946911372417      2.89107588272689      0.25980604288886
  F   -0.61564019972436      3.34361960087055      1.56585614584986
  C   -1.64658023931163     -2.03320370550771     -0.40897972912248
  O   -2.79663070827938     -1.98588130568614     -0.04337803528428
  O   -1.16482282084320     -3.15584961821389     -1.00504257292757
  H   2.62007268559412     -0.08811548319687     -0.01931913346460
  H   1.14903262801740     -2.04296522893985     -0.31889960632750
  H   -2.31063286452326      0.49533907756213     -0.02658808087833
  H   1.64318919420645      2.17678794521754      0.27359312718221
  H   -0.29633616648784     -2.98539514679529     -1.39531143144045
