17
Coordinates from ORCA-job test_5_sl_inp/doublemontecarlogen3D326
  C   0.97999456679883      0.00954693356732     -0.07733080645434
  C   2.49110458560446      0.03855776527033     -0.09242425823916
  C   3.22507832371683     -1.14838568707985     -0.13555264861760
  C   4.63306150029584     -1.13990970446356     -0.15377183002605
  C   5.30696273599140      0.09074341678371     -0.12519662566175
  C   4.55510634552076      1.25764050128575     -0.08251625470087
  C   3.16770951365717      1.26763887064976     -0.06417474807233
  F   5.21308990102629      2.43927908513920     -0.05362824426847
  N   5.34527796053599     -2.33505202077668     -0.25562002254594
  H   0.59760792704985     -1.01485221791663     -0.06633580745831
  H   0.56675637710740      0.51242450993170     -0.95957191252007
  H   0.58216276142324      0.52758009461748      0.80295575770453
  H   2.70190709629097     -2.10166926091941     -0.16185453447451
  H   6.39065185690563      0.14851964929883     -0.14178440560934
  H   2.63695945877294      2.21312220030826     -0.02779898788853
  H   4.85569208619995     -3.15655659823223      0.07121617324836
  H   6.29765700310241     -2.30229753746398      0.08089915558438
