13
Coordinates from ORCA-job raina_inp/doublemontecarlogen3D228
  C   1.16065605655509      1.50972641701349      0.00358028765562
  C   -0.09273950354230      2.10534669988785     -0.02951648094850
  N   -1.23875596933439      1.41386096969213     -0.03631029892839
  C   -1.10345434430058      0.09671648961414     -0.00955532140715
  N   0.03137819654011     -0.60398511169518      0.02431074990919
  C   1.14351703206180      0.11074156283389      0.03085364127780
  Cl  2.65071882061739     -0.76337365783010      0.07688094172333
  Cl  -2.57354753419939     -0.83582880626736     -0.01949729339924
  C   -0.25105176880586      3.61754349349723     -0.05867196578210
  F   -0.91649889656864      4.00322562582864     -1.15806279773479
  F   -0.93121759276835      4.04236728102093      1.01726077222851
  F   0.95363794395724      4.22672334554090     -0.06130230786955
  H   2.07778755978789      2.08178569086343      0.00823007327528
