19
Coordinates from ORCA-job test_7_sl_inp/doublemontecarlogen3D362
  B   0.82545705566657     -0.12441319852684     -0.12030852287181
  C   0.02518037471844     -1.40981171835349      0.27629837674087
  C   0.49300744989764     -2.26426051822553      1.28976876099205
  C   -0.21547218083913     -3.41261494362792      1.63951503832731
  C   -1.41230806763614     -3.72967840150671      0.98506933486025
  C   -1.89082650680566     -2.89249006705026     -0.02008056590930
  C   -1.17584844775712     -1.74502439568841     -0.37014817779341
  C   0.27671558588389     -4.33163367546814      2.72350366668057
  F   0.42801833317121     -5.59997887039811      2.27039932116277
  F   1.46523814617227     -3.94204115873254      3.23166485937744
  F   -0.60001830382249     -4.39857472374766      3.75464755549173
  O   0.34016417042081      0.63957044386369     -1.15228714890838
  O   1.96507806838483      0.16622418198178      0.58644240337412
  H   1.41816124163704     -2.02767623007095      1.80375060034108
  H   -1.95968557857958     -4.62579661834351      1.26259760778858
  H   -2.81865229526623     -3.13559603978707     -0.53003957657251
  H   -1.55020922444663     -1.09575295753651     -1.15646399631541
  H   0.85730367287849      1.42494156406733     -1.36333530552031
  H   2.43484650632181      0.96104732715087      0.31041576875434
