14
Coordinates from ORCA-job leia_inp/doublemontecarlogen3D212
  C   0.45553852317552      0.84234172974408      0.22485190277563
  C   -0.57270905681911      0.33196164208283      1.22573283289708
  O   -0.38252906724151      0.21840684095223      2.41864793741193
  O   -1.77614810324171      0.01729604868917      0.71846498386958
  C   1.91354633977717      0.74724563677974      0.69067784657867
  C   2.37275664476092      1.78137584375961      1.76319206909728
  O   3.15838041643710      2.64978797557092      1.48439579788957
  O   1.84372834046373      1.61514128168332      2.97321853074455
  F   2.13374541596077     -0.51826683780402      1.17604578239442
  F   2.68922307131210      0.91118352013385     -0.40996865206164
  H   0.22264962409005      1.88407353689696     -0.02885985319710
  H   0.39559381695219      0.26218075612499     -0.70339107909247
  H   -1.79324175168732      0.12887703729714     -0.24326345499921
  H   1.12971578606009      0.93461498808918      2.95956535569169
