15
Coordinates from ORCA-job test_4_sl_inp/doublemontecarlogen3D310
  C   -1.16020106141913     -0.71056712176021      0.01083968617472
  C   0.03692009585316     -1.41770098963366      0.06043932821444
  C   1.25228031647124     -0.70604663490752      0.06657568588773
  C   1.22247315669594      0.68820231072039      0.02588966432845
  C   0.02660971057669      1.41925102617770     -0.02102497173975
  C   -1.17046303520892      0.68504041667552     -0.02876105173736
  N   0.06776292115087      2.80530368172959     -0.00352123273340
  F   2.38225755388396      1.38301931950961      0.01769369078506
  C   2.51088899248686     -1.38725599896783      0.10828508415058
  N   3.52418924316331     -1.95693782386075      0.14596168214040
  H   -2.10283530821573     -1.24881886351578      0.00356502858868
  H   0.05413367116842     -2.50081880888214      0.09214949541224
  H   -2.11463921640175      1.22237796646255     -0.06131092310069
  H   0.95366436613871      3.21204517187812     -0.26803265650279
  H   -0.72916140634364      3.27707634837440     -0.40551850986830
