15
Coordinates from ORCA-job test_5_sl_inp/doublemontecarlogen3D322
  C   -0.60103270667325      1.47133075327108     -0.14481112542993
  C   0.72856227097926      1.86209545048933     -0.07681977243044
  C   1.74166354136089      0.90932111782603      0.05952253789719
  C   1.41537856810554     -0.45299206726397      0.13976425743855
  C   0.08527351794320     -0.85538464090673      0.08059193993330
  C   -0.92457980753176      0.10462071538938     -0.06585076484850
  C   -2.29572799885133     -0.31355270527353     -0.13189128362292
  N   -3.40853294712453     -0.64617046364818     -0.18602255227294
  F   2.33975672270987     -1.39749727604048      0.29341743587521
  N   3.13437980411702      1.38636481788105      0.10956963028111
  O   4.02990881078106      0.55819489174362     -0.01819055331785
  O   3.30041349492617      2.59555728124158      0.26745546621296
  H   -1.38727283983662      2.20885985557276     -0.25734301881058
  H   1.01598076468877      2.90511784250256     -0.12583865548452
  H   -0.14489119559430     -1.91206557278450      0.15130645857935
