18
Coordinates from ORCA-job ewa_inp/doublemontecarlogen3D1
  C   -2.89248049575555      2.31730799923007     -0.22507499456822
  C   -1.84952703945151      3.24387636633274     -0.21374608963875
  C   -0.53455355911777      2.80350270002031     -0.03865430720985
  C   -0.29899480053618      1.45156438008643      0.14375688750906
  C   -1.32892251871519      0.49683759400938      0.15601056910484
  C   -2.63953084940727      0.95395898880449     -0.05642525559896
  N   -0.96033128060162     -0.85158772477087      0.31432225418135
  C   -1.62439481949867     -1.89549455532166      0.90746950255749
  S   -0.98753309556855     -3.44753134891489      0.86406581331502
  N   -2.81379091552522     -1.61004782199672      1.50940038196092
  F   0.96941834172959      1.00590710905974      0.30143240822326
  H   -3.91365240814444      2.64966520434603     -0.38472461016742
  H   -2.05051838698614      4.30159020837255     -0.35018627232948
  H   0.30681633018242      3.48837388618737     -0.03467479005405
  H   -3.45123434660621      0.23829974526344     -0.11884604803985
  H   -0.01982540185560     -1.09207496374780      0.03124792584711
  H   -3.00423502808925     -0.66875507695946      1.82734873795787
  H   -3.19922972605285     -2.36496269000116      2.05660788694967
