20
Coordinates from ORCA-job leia_inp/doublemontecarlogen3D218
  N   0.82751779854024     -0.45787166879984     -1.24185249937449
  C   2.25265286199924     -0.16113360887096     -1.25547170099500
  C   2.99235623017701     -0.96566207957058     -0.14467488830028
  O   4.27391535076034     -0.63839788751684      0.09820705105947
  O   2.44594779169710     -1.84844291687900      0.47296760981574
  C   2.88573745470485     -0.46200236655183     -2.61947158074841
  C   2.28720655019134     -1.32954055329709     -3.54089736343429
  C   2.89281365401967     -1.59523572956827     -4.76939184470195
  C   4.10623927852838     -0.99466703681642     -5.11451907239548
  C   4.70027995490821     -0.12311118498596     -4.21160815991940
  F   5.86047293879246      0.48895456874747     -4.50139670186396
  C   4.08965479521101      0.13034148008070     -2.98761821492477
  F   4.70455019884631      0.99802497659509     -2.12370027579337
  H   0.33636397375632      0.24313392234227     -0.69625568404608
  H   0.70449581717382     -1.34049468563830     -0.74588098816094
  H   2.41523528646070      0.90357779021172     -1.04530050434194
  H   4.57196378390630      0.06987961860177     -0.49698159329066
  H   1.32751560901670     -1.76255222241195     -3.28379560272206
  H   2.41478590077247     -2.27152340881420     -5.47105787996249
  H   4.59515477053751     -1.18365700685778     -6.06414010589960
