18
Coordinates from ORCA-job test_3_sl_inp/doublemontecarlogen3D276
  C   1.41163244857087     -0.16548356843963      0.06774365385421
  C   0.54625740896107     -1.26074164672448      0.05284688277495
  C   -0.84090156407699     -1.07331210670824      0.07451440241356
  C   -1.35173228176634      0.23024578575707      0.11175075932498
  C   -0.48701394362565      1.32294737016078      0.12660245891434
  C   0.89866100881409      1.12911194509883      0.10393340348752
  C   -1.02148583969863      2.72920924505440      0.18921651507174
  F   -0.49840915894319      3.49833269957822     -0.79240094706019
  F   -2.36510030933171      2.77419373420425      0.06890144451233
  F   -0.70287885467402      3.32690377865164      1.36138897215198
  C   -1.77272634500783     -2.24908408593058      0.05695774466185
  Cl  -2.21957098849501     -2.75599560154475     -1.64985872690930
  H   2.48590078668206     -0.32226561169994      0.05139904968492
  H   0.95020936634421     -2.26929446514024      0.02058400506691
  H   -2.42428571667448      0.39401235199663      0.12302241237802
  H   1.56510746632043      1.98596064375600      0.11290279431936
  H   -2.71890019224841     -2.02675489163126      0.55099930470116
  H   -1.32439329115045     -3.13144557643867      0.51443587065168
