18
Coordinates from ORCA-job sli_prashanth_inp/doublemontecarlogen3D551
  C   1.24193654825888      0.37246106507668     -0.01129714647050
  N   2.66743715349257      0.07435875373507      0.01193992400435
  N   3.08776376433648     -1.20862671038335      0.01348179534276
  C   4.41270454639651     -1.14908464206399      0.03771640261479
  C   4.89422423572181      0.19180288618013      0.05195581531504
  C   6.32162690736067      0.60864197996495      0.07929128848370
  O   6.59250134682090      1.93627726491519      0.08583622530011
  O   7.22153204714792     -0.19559619844482      0.09487001490761
  C   3.71443127989118      0.93191316883284      0.03446789131946
  Cl  3.45401049907806      2.64294767767076      0.03757442167348
  C   5.19001010030246     -2.44378414136073      0.04600602148777
  F   5.99098492993784     -2.54174606821959     -1.02895928938734
  F   5.94744997655745     -2.55413932948015      1.15101100360975
  F   4.34434087952333     -3.49134849024111      0.02307466012705
  H   0.72724106906346     -0.58690888900747     -0.02786980561078
  H   0.98463637437220      0.94787869795953     -0.90432140970122
  H   0.95255486277001      0.93419791882780      0.88067600405535
  H   5.78734347896824      2.47473505603826      0.07103618292862
