28
Coordinates from ORCA-job sd_inp/doublemontecarlogen3D419
  C   2.61519810799469     -2.99790070090796      7.80451905948780
  C   3.89032807373093     -2.41813088460118      7.81658055435550
  C   4.14255650642042     -1.36980334078428      6.93464970909894
  N   3.23423285020457     -0.89329073010573      6.07895286403074
  C   2.00837216770671     -1.42928280455822      6.06381695469871
  C   1.67007701084786     -2.50100865690289      6.92799982232880
  Cl  0.05944455484023     -3.20119070209862      6.87508308377163
  N   1.07326107626072     -0.88066995473815      5.20027590722891
  C   1.51937902319643     -0.01489071951210      4.09528957351720
  C   0.33154815871511      0.41423916488555      3.22523145184429
  C   -0.89417308210117      0.97879936943135      3.98253845736886
  C   -0.56623618978222      2.12702410067759      4.93509412002684
  O   -0.81676662498213      3.28453727840599      4.70296829549828
  O   0.04603547743513      1.76626553197723      6.09012606347345
  C   4.93535729893552     -2.89443108452136      8.78472336692335
  F   6.18274876824333     -2.68572218120897      8.31225180068580
  F   4.84988265267471     -2.25690592237848      9.97416852624974
  F   4.80513035595261     -4.21641578366427      9.03934136385415
  H   2.37219064626451     -3.82529781097717      8.46166660374320
  H   5.12232348281349     -0.90051756432823      6.90420576605610
  H   0.32598320914645     -1.52352815403309      4.96205511976121
  H   2.26986214588032     -0.52500813724236      3.47734192893881
  H   2.01576033822277      0.85198624691001      4.53699846267312
  H   -0.00839668569915     -0.43611371560117      2.61982952298138
  H   0.69683042961226      1.16785249252200      2.51924154239516
  H   -1.38718188691829      0.17905066506674      4.54947104499133
  H   -1.61684465253529      1.35999699388064      3.25824706474186
  H   0.21979678691945      0.80483700440713      6.08926196927467
