16
Coordinates from ORCA-job leia_inp/doublemontecarlogen3D216
  C   -1.28320988425201      0.54848072590527     -0.15884432776343
  C   -1.22920150568911     -0.83848509146947     -0.05523986311389
  C   0.00518351633830     -1.48584400617958      0.07205203390747
  C   1.17376173025129     -0.71199015709469      0.08348370932008
  C   1.11101341951836      0.67147199902229     -0.03762897861078
  C   -0.12076582583026      1.33498098918796     -0.14916427581442
  C   -0.17127749680995      2.82125214471380     -0.32702771133704
  O   0.65933760015003      3.46756700485973     -0.91394246133789
  O   -1.26956441888981      3.43231876694060      0.20539329015372
  F   2.26198595899696      1.34515629359515     -0.00770471232617
  F   2.36339792451135     -1.31183601441643      0.21428438850207
  O   0.15811001643011     -2.82681589821400      0.18817671402653
  H   -2.24911749894842      1.02631484585300     -0.29386631916337
  H   -2.14264027964674     -1.42693543355934     -0.08337894690287
  H   -1.73365688649683      2.82114076784053      0.79489198444835
  H   -0.70879636963326     -3.25300693698482      0.16064547601166
