17
Coordinates from ORCA-job ewa_inp/doublemontecarlogen3D138
  C   2.67105655779757      1.73339371088392     -0.29618058472708
  C   2.11096070978916      2.99657889999977     -0.10862495687952
  C   0.81464414659778      3.12483070460025      0.38355604815148
  C   0.05198111818657      1.97531702469764      0.69726484219045
  C   0.62737378427200      0.71265103223388      0.50093188799735
  C   1.92552758600094      0.59360034635351      0.00914448551556
  C   2.50219775912545     -0.78797907026781     -0.16756774324088
  F   1.72080939964517     -1.54948102009714     -0.96565352055711
  F   3.73558563914460     -0.75606404710779     -0.71224492066316
  F   2.59623818770386     -1.43436717117336      1.01579012369417
  N   -1.22826382587468      2.04866887061053      1.18652040786832
  C   -2.20058872918057      2.65172729155010      1.55010046842988
  S   -3.54502843695087      3.31382565677267      2.05682539888617
  Cl  0.13530689168422      4.71403305932620      0.61068375206389
  H   3.68036448100125      1.63752587270135     -0.67852249792422
  H   2.67760746847640      3.89083549212489     -0.34315959062896
  H   0.03873726258111     -0.16605665320863      0.74013639982365
