21
Coordinates from ORCA-job srijon_inp/doublemontecarlogen3D470
  C   2.89736407608076     -0.13631578059012      0.11009078525366
  C   2.32520037797994     -1.41568239413943     -0.07355440331341
  C   0.95704813475409     -1.55162288438231     -0.13485480156502
  C   0.11779258643019     -0.41179691785979     -0.03672665440412
  C   0.68437596542946      0.90069837139908      0.10602824143399
  C   2.10440001913750      0.98826261941304      0.20164097295671
  C   -0.20700996941333      2.02594531036332      0.19254228512707
  C   -1.57656364615747      1.82188823897529      0.21470015897040
  C   -2.13935210826271      0.53663574955377      0.08495186061651
  C   -1.29520623651346     -0.53479843010446     -0.05279171555547
  F   -1.81223134044614     -1.77148313401703     -0.19707759917522
  C   0.23248182052890      3.46104537720494      0.25561136663495
  O   -0.35939473806299      4.31215392669497      0.87588196270048
  O   1.33006357049294      3.80324865953119     -0.47782113372920
  H   3.97583863561254     -0.03725099876709      0.19387493417095
  H   2.96531266107278     -2.28965058768544     -0.14718135190748
  H   0.49667481267555     -2.52673059683391     -0.24890076689563
  H   2.57121680920681      1.94913198313530      0.38901801503919
  H   -2.22301031699497      2.68670939159687      0.31917832789747
  H   -3.21287504616843      0.38462619831688      0.08236572920971
  H   1.60213393261803      3.05711589819492     -1.03190621346556
