24
Coordinates from ORCA-job leia_inp/doublemontecarlogen3D20
  C   1.21106510209462     -0.74840398831989      0.78239230561872
  C   0.46454353537336     -1.90168603439213      0.65691793657838
  C   -0.91614247371833     -1.86209474644358      0.32764454824202
  C   -1.52924899412397     -0.57872447106188      0.12837890292578
  C   -0.74078871452237      0.58761229066806      0.26317990070435
  C   0.60034042446870      0.50634017893277      0.59195271405448
  Cl  1.57532571423238      1.96756083011250      0.70488684675499
  C   -2.94521907178813     -0.50803950122123     -0.23610902398080
  O   -3.69480014369556     -1.47285474601382     -0.34160176328116
  C   -3.59531482258733      0.88321229092143     -0.49944814995338
  F   -2.96504053012302      1.54014052296142     -1.51584971689751
  F   -4.87493245081262      0.75137357033692     -0.83226875759685
  F   -3.51733970786577      1.67618292905491      0.58894630303939
  N   -1.61272319210406     -3.01471454315618      0.21564902219206
  O   -1.78940865737252     -0.58891405748884     -3.22072411705521
  Cl  0.23736487131556      0.33081530905822      4.42000466036798
  H   2.26756961854801     -0.80486934024954      1.02427572376161
  H   0.94136174931630     -2.86859521534232      0.79410388122988
  H   -1.18516432557225      1.56331469828946      0.12215067776071
  H   -1.13955904691182     -3.89962969562393      0.30447290164286
  H   -2.58518435525017     -2.97045704058873     -0.06381426964264
  H   -2.29205810674637      0.22740753756166     -3.09678323469238
  H   -0.87187461133997     -0.31308812981606     -3.09807030324450
  H   0.25442818918544      0.48222135182081      3.13895301147123
