20
Coordinates from ORCA-job sd_inp/doublemontecarlogen3D420
  C   1.45314908335855     -1.11621523086189      0.70669367275093
  C   0.21619707040870     -1.14048529707503      1.33790745033441
  C   -0.83673572906267     -0.29816508073985      0.94774650968770
  C   -0.60964089504941      0.58050050132488     -0.13393379232203
  C   0.62015321156035      0.59337314871879     -0.78113040157011
  C   1.67706325043018     -0.24221266186062     -0.37015061240543
  N   2.88031707263418     -0.23552639091544     -1.05134956930314
  C   -1.68676966027145      1.51716649002212     -0.65197408620014
  F   -1.84171551969894      2.59811219745814      0.13009988218391
  F   -1.37473293744965      1.97553374697157     -1.89202817370496
  F   -2.87838571229617      0.89716566789536     -0.75867347363599
  C   -2.10949528764284     -0.30929491260289      1.74294841918219
  O   -2.72627168160080      0.67315046600905      2.07082662679860
  O   -2.52782461978072     -1.54539134600159      2.14530911166867
  H   2.25016275564847     -1.77216536007720      1.04691349134623
  H   0.07703909971950     -1.80395249163874      2.18731174964595
  H   0.76285605140179      1.25254813273762     -1.63013917779307
  H   3.09077600966763      0.58504261160835     -1.60036454579570
  H   3.68142826490298     -0.61729678567749     -0.57047854500953
  H   -2.03789982687968     -2.22671740529515      1.66325546414150
