21
Coordinates from ORCA-job leia_inp/doublemontecarlogen3D373
  C   1.38925303060041     -0.21052540819231     -0.14830770112314
  C   0.50102866815121     -1.27302052864917      0.02966103115984
  C   -0.87007243973952     -1.03712039166626      0.14708525848918
  C   -1.32022905542515      0.27882112640662      0.07620415541383
  C   -0.45724618959974      1.35842376714629     -0.10026604772114
  C   0.90894053387036      1.09978314895715     -0.21254324468502
  C   1.87643346789869      2.25281297742371     -0.35227330259451
  F   1.30111356655482      3.29998441393664     -0.97622260450405
  F   2.29959950548511      2.68354808566285      0.85412560882852
  F   2.96877002874357      1.89511354112428     -1.05721576171953
  S   -3.07689450203460      0.60531359149146      0.24794716147038
  O   -3.70204669724437     -0.51926603714925      0.93056291714231
  O   -3.25819501769791      1.98672355128719      0.67304911566300
  Cl  -3.70482352042001      0.51073508698166     -1.77986487959073
  C   1.01091763525405     -2.69610532751195      0.04147612955347
  F   0.93676004250024     -3.24583158550783     -1.18856003265783
  F   2.29875345762074     -2.75682200631877      0.43421892739092
  F   0.28374986207899     -3.47035657526954      0.87137054419033
  H   2.45212477895774     -0.40307443346487     -0.23784832951324
  H   -1.56752316210461     -1.85231039708578      0.30392579036732
  H   -0.84108399345001      2.37100340039789     -0.14625473555989
