19
Coordinates from ORCA-job test_3_sl_inp/doublemontecarlogen3D273
  C   1.49559551654808     -0.09045872317353      0.16876947380529
  C   0.66177276629855     -1.20052223544423      0.01545709432850
  C   -0.72582379972171     -1.04420807455557     -0.07059199441152
  C   -1.26890934562777      0.24423029967158     -0.00956993894425
  C   -0.43525411712755      1.35329620724800      0.13510088338164
  C   0.95144780687489      1.19100351872074      0.22716357049976
  C   -1.01221691864844      2.74197507207028      0.21971126059287
  F   -0.40103689867761      3.58693542023398     -0.64393161474776
  F   -2.33304938671583      2.76857400186231     -0.05797948619439
  F   -0.85169426126596      3.27241656072707      1.45509923281037
  C   -1.63860454744012     -2.25087784508555     -0.20338293716894
  O   -2.87545862098536     -1.96701920379439     -0.83772375808434
  H   2.57156284998102     -0.22521542567560      0.23134241148152
  H   1.09581556442881     -2.19644002901214     -0.04235109842311
  H   -2.34294287181182      0.37014270222724     -0.08415643497576
  H   1.59517463818361      2.05857548545081      0.33357475561017
  H   -1.90720199929005     -2.62297127559404      0.79302645229872
  H   -1.09807628392702     -3.06649166490222     -0.70981914767585
  H   -2.68193009107571     -1.64650479097472     -1.72930872418291
