17
Coordinates from ORCA-job raina_inp/doublemontecarlogen3D229
  C   0.53996809474541     -1.81712046951814     -0.03253890008002
  C   -0.76376601900809     -1.33216183840891     -0.16884378999356
  C   -0.91280627385847      0.05909525046986     -0.21071848858345
  C   0.15158506819336      0.94208224258846     -0.12218605572526
  C   1.43771666627001      0.42733744687173      0.00624394437281
  C   1.63528878454058     -0.96412390551504      0.04933267186891
  N   2.97462115374781     -1.56343772154875      0.17271153039218
  O   3.94504923715913     -0.83185681910088      0.00220427167785
  O   3.02367437241795     -2.76453123403510      0.42915759679996
  F   2.43863423142872      1.29290895231953      0.10544640334510
  F   -2.15074771674192      0.60209556199700     -0.33958362706913
  C   -1.87031031382316     -2.35748637158717     -0.25685305040023
  O   -1.62990216577690     -3.54051430677208     -0.21734623369742
  O   -3.13470934167745     -1.91166082917995     -0.38002288639905
  H   0.69371818980060     -2.88896683542305      0.00996426218187
  H   -0.00797136988286      2.01324113498395     -0.14952717054315
  H   -3.16713259753471     -0.94301025814145     -0.39719047814742
