18
Coordinates from ORCA-job test_6_sl_inp/doublemontecarlogen3D342
  C   0.16413820734713     -2.76897310852815      0.16353409842630
  C   -0.71778090570715     -1.72262249890256      0.43381301781388
  C   -0.49267950634186     -0.44275598800822     -0.09772394965300
  C   0.63340025236677     -0.23399803798181     -0.90844953257241
  C   1.50015825702697     -1.29429433048319     -1.16145939509504
  C   1.28745439238998     -2.56504589047299     -0.64145662346843
  F   2.58377326333086     -1.07250929898421     -1.93139391145151
  C   -1.47011477787831      0.68203556615800      0.16558329131220
  C   -2.70267126650268      0.71354987008296     -0.75598985720890
  O   -3.75602305601954      1.19053534069191     -0.41695228067034
  O   -2.53288570319924      0.21540700168550     -2.00308156117692
  H   -0.02061531552827     -3.75327008269195      0.58347365160455
  H   -1.58681806469858     -1.89495209961671      1.06268443738139
  H   0.85964728292744      0.74350316167237     -1.32487558208428
  H   1.98918105143900     -3.36183079481322     -0.86284494637066
  H   -0.97271008501024      1.65294380542414      0.04745113496155
  H   -1.85479567806041      0.64826942591401      1.18751448407119
  H   -1.64837834788188     -0.17645204114588     -2.08368647581958
