14
Coordinates from ORCA-job leia_inp/doublemontecarlogen3D219
  C   -2.00645972246299     -0.66786147483221      0.04812746851505
  C   -1.99489590134686      0.72133905482754      0.08232673797729
  C   -0.78002840930400      1.42767380697448      0.04721743982407
  C   0.41452172505216      0.70553154273774     -0.02176228063066
  C   0.40081793457252     -0.68884218883166     -0.05504933617885
  C   -0.80211455178323     -1.38049637867390     -0.02129941944260
  F   1.56949581061438     -1.34712924425952     -0.11949965339898
  F   1.59989881169266      1.33858996518422     -0.05640585830365
  C   -0.77448387193222      2.91191500674093      0.08371709040678
  O   -1.78941486339997      3.58043173055122      0.14725657928750
  H   -2.94676835482677     -1.20909065221609      0.07528779466792
  H   -2.91128114822236      1.29972079400529      0.13678365949164
  H   -0.77993251605806     -2.46504071169103     -0.04937129590835
  H   0.22440505740474      3.38685874948299      0.04882107369283
