18
Coordinates from ORCA-job ewa_inp/doublemontecarlogen3D145
  C   1.06854225154257     -1.62146920058917     -0.64218645965763
  C   0.66226287797791     -0.36511703190407     -0.19777102689273
  C   -0.45123713533894     -0.25082646578409      0.63101958249800
  C   -1.19141835577685     -1.38797211619937      1.03343253617642
  C   -0.75372234695016     -2.63712833420610      0.54919813715829
  C   0.36410405969875     -2.76634411814416     -0.27041351198691
  Cl  -1.59727648045716     -4.11724861691186      0.99783320029416
  C   -2.40306135731312     -1.27556581959193      1.89236574376544
  O   -2.63456667679752     -0.34888404843028      2.64607431414658
  O   -0.87772982830971      1.02300172249159      0.95248474600755
  C   -0.43451696557397      1.56204066766040      2.15125683863176
  F   0.92133702599635      1.71388888525755      2.11417250835086
  F   -0.98762942463752      2.78064889042187      2.23482664350709
  H   1.93898304209850     -1.71293431773142     -1.28474811217958
  H   1.18628510997216      0.53893325819284     -0.48493023506523
  H   0.67252796143393     -3.74902664089963     -0.60840085186625
  H   -3.11156340779306     -2.11884791355882      1.80423314104482
  H   -0.70672034977216      0.95394119992664      3.01571280606735
