18
Coordinates from ORCA-job test_5_sl_inp/doublemontecarlogen3D324
  C   -1.76907242366257     -0.29255629277417     -0.19587973444500
  C   -1.00604235958592      0.87973278001964     -0.24523915247732
  C   0.38289386301853      0.81724544068058     -0.06887485875079
  C   0.97879768909260     -0.42158795298887      0.13627052617846
  C   0.24425123973985     -1.60021666383129      0.16441763422304
  C   -1.14057022649495     -1.52268098065069     -0.00478115767294
  C   -1.95841929664243     -2.79147554176589     -0.03627990607071
  F   -2.14639149299191     -3.21591481065915     -1.30574109686741
  F   -1.35013879955654     -3.79405766743155      0.63337744265007
  F   -3.17751737813584     -2.61016644483350      0.50862062331277
  F   2.30927033275746     -0.47806604273296      0.32227518792311
  C   -1.73855505527100      2.17786394050903     -0.44796312600988
  O   -2.91287545041195      2.31201225466301     -0.20322860350462
  O   -1.01275732276426      3.22111910191107     -0.92650697828379
  H   -2.84523036454785     -0.22116726098646     -0.30210727878158
  H   1.01052909375806      1.70285731785849     -0.04128574801911
  H   0.74383131542641     -2.54748032034474      0.32893703616069
  H   -0.14973336372768      2.92009914335747     -1.24344080956500
