15
Coordinates from ORCA-job test_5_sl_inp/doublemontecarlogen3D334
  C   -1.21198770472332     -1.28138166068295      0.00054306032607
  C   -1.91676078993027     -0.07902227462876     -0.08113869706461
  C   -1.22544246474114      1.14139424324879     -0.10805214565017
  C   0.17478125932675      1.15051367254682     -0.07272139208160
  C   0.84948952092190     -0.05793681582720      0.01730687327067
  C   0.18157778116375     -1.27979818116158      0.05823567443630
  F   2.19513250365193     -0.05336171242427      0.06387701485049
  C   -1.91442190670896      2.47295733036126     -0.21025516880321
  O   -1.36176612038671      3.47519238112113     -0.59669942938503
  O   -3.22185239771411      2.51423157659987      0.15952509978179
  H   -1.74909807710935     -2.22484363558589      0.01180939539850
  H   -2.99986146040685     -0.10823512576584     -0.16759900546130
  H   0.71358813131677      2.08992686701744     -0.11630051792188
  H   0.75286659154283     -2.19949382685793      0.12574571814214
  H   -3.47248486620322      1.68928716203911      0.59819352016182
