31
Coordinates from ORCA-job raina_inp/doublemontecarlogen3D590
  C   0.71030775061649      2.13364767099752     -0.08438351694322
  C   0.65508119513525      0.80286015994910      0.33571938318767
  C   0.35119991180487     -0.21980694339862     -0.57037022079053
  C   0.09706774528266      0.10610278909217     -1.90973920660392
  C   0.14411392675232      1.43734184524158     -2.32401738406442
  C   0.45313885648415      2.45504273208673     -1.41477851578034
  C   -0.11023609674757      1.79758038613464     -3.76510805007253
  F   -0.75228106260684      0.81618834006692     -4.43100497856228
  F   -0.86105635177333      2.91947430461069     -3.86609794448711
  F   1.04331099459566      2.04398614184666     -4.42877326718940
  C   0.28662694853014     -1.66187447635315     -0.10524368942281
  N   1.54984433348081     -2.40731328088609     -0.32132043306970
  C   2.49384609677702     -2.44215163347324      0.64550512662249
  C   3.68886230005822     -3.10788082725823      0.49465883978274
  C   3.89992242975189     -3.80075967382258     -0.73708526476416
  C   2.95786995738265     -3.78268684392966     -1.72246010422011
  C   1.70898476446237     -3.06073196546642     -1.58320239696923
  O   0.82303672941403     -2.98599836332366     -2.43053968646737
  C   4.62283778580811     -3.06782389063182      1.65316566452630
  O   4.30790231438434     -2.64187875138485      2.74283494944829
  O   5.88301531200808     -3.53656371000131      1.45285372345310
  H   0.94216643854979      2.91881001043448      0.62888729839275
  H   0.83880036754230      0.56252712969518      1.38044570808725
  H   -0.13205420439829     -0.68259680898722     -2.61765458322754
  H   0.47718960256386      3.48811021854087     -1.74637812193105
  H   -0.48403840290072     -2.20740206173116     -0.65119541006530
  H   0.06604541943704     -1.70855100599747      0.96398716389145
  H   2.27966598961966     -1.92244714517323      1.57296842473754
  H   4.80647802656746     -4.38154298252013     -0.89839997195019
  H   3.09373004505093     -4.31067992022509     -2.65894188885578
  H   6.04295087636658     -3.71907144413258      0.51712835330746
