15
Coordinates from ORCA-job test_7_sl_inp/doublemontecarlogen3D369
  C   1.25252153283133     -1.46286714489867      0.13391122074963
  C   0.05158055364675     -2.18679967471272      0.11161748491987
  C   -1.17403457404642     -1.51433758298235      0.02346384964202
  C   -1.18690147770438     -0.13150687591771     -0.06694882012152
  C   0.00101988492283      0.60279118446709     -0.05828895793159
  C   1.21330150167104     -0.07728488256247      0.04783284586770
  F   2.34741068050173      0.63640431722851      0.07457737566660
  F   -0.02313086500582      1.93445414903286     -0.14187854746535
  F   -2.34287410649178      0.53732440655090     -0.16304365691520
  C   0.00131516988440     -3.68481658616038      0.21729879493056
  O   -0.99246182097594     -4.28466235315742      0.55013850087738
  O   1.14119869089992     -4.36009787391376     -0.08053827658990
  H   2.22199125229932     -1.93360377209589      0.26234268619729
  H   -2.10199754590589     -2.07384950058937      0.02886988401547
  H   1.78546112347292     -3.77499781028861     -0.50265438384296
