18
Coordinates from ORCA-job sli_testing_inp/doublemontecarlogen3D609
  C   1.80735470735312     -0.38301774390999     -0.37982309274126
  C   1.50664327893305     -1.69909333837253     -0.72318165464274
  C   0.19668641349912     -2.16809032908846     -0.60443507032719
  C   -0.82449474848119     -1.32696552546653     -0.15984113734252
  C   -0.52721954468982      0.00583320057530      0.18632844349856
  C   0.79447701387691      0.45925317352530      0.08057617054765
  C   -1.58843033085258      0.99561787792028      0.59999799079566
  O   -2.61161706459032      1.18472767836468     -0.00500731226513
  O   -1.28256616631204      1.73822689380237      1.69824332398381
  C   -2.22610642566285     -1.88867594768808     -0.02193482539228
  F   -3.04430601653382     -1.47876897519296     -1.00397228051688
  F   -2.21113060003573     -3.24303338777266     -0.05810715319542
  F   -2.77963847845779     -1.53292409595599      1.15835931039840
  H   2.82297361780560     -0.00921449010193     -0.46884569168636
  H   2.28747308295805     -2.36577326090176     -1.07619938253317
  H   -0.03607329484426     -3.19825210201638     -0.84750154292292
  H   1.02356230921899      1.49151595704099      0.33115621052959
  H   -0.49548775318443      1.37592441523835      2.13008769381220
