21
Coordinates from ORCA-job test_4_sl_inp/doublemontecarlogen3D312
  C   1.79024685439866     -2.19909254195379     -0.35658401420836
  C   1.80318082732325     -0.87748158058039      0.39560120445904
  O   1.12444078180679     -0.72889862302000      1.40232308503479
  C   2.66034584315218      0.23324620119127     -0.11802408115835
  C   2.65480267462828      1.44794304554867      0.58276503269058
  C   3.42834179081473      2.51123223936411      0.15715924213738
  C   4.24646959596233      2.41987068876174     -0.98597478673726
  C   4.24530936661167      1.19902375202505     -1.68164922666778
  C   3.46992610301285      0.12661751134899     -1.26073636747119
  O   5.04489265043496      3.38473314606066     -1.50105960689627
  C   5.15281072010936      4.67816201501052     -0.89697090082978
  F   3.38317372075965      3.66362544091244      0.87453154776765
  H   1.11264923483003     -2.88378989085041      0.15460017784670
  H   2.79245306247555     -2.64101418389306     -0.39417720898137
  H   1.45501263213299     -2.06078659774369     -1.39075934311779
  H   2.03682539280689      1.55278333045569      1.46797336866221
  H   4.87501333365280      1.12821372955631     -2.56257592306011
  H   3.50159336667698     -0.79645481818618     -1.82993423388105
  H   5.85982573396291      5.22281098315873     -1.52474474959259
  H   5.53970833155162      4.61421531273605      0.12363391304583
  H   4.19132798289550      5.19868084009726     -0.88773712904227
