17
Coordinates from ORCA-job sli_testing_inp/doublemontecarlogen3D607
  C   1.44957527840023     -0.42168920980782      0.09329593922837
  C   0.56297546604607     -1.49756295121643      0.14669079056747
  C   -0.80750073121298     -1.26257242611433      0.00715575232454
  C   -1.29335445504758      0.03052981745591     -0.18339831077333
  C   -0.39859721499368      1.10457174734433     -0.23663264056490
  C   0.97912852970438      0.87585717899448     -0.09648410785322
  N   -0.92288504607422      2.38303082360262     -0.43543892137371
  C   -0.55189562577593      3.52958023641692     -0.55291115824221
  O   -0.32865815994733      4.67910994339503     -0.67685157325102
  C   -1.77856202723499     -2.40957056789543      0.11580231339356
  F   -2.92045159501174     -2.16699982833541     -0.56368066799798
  F   -1.25224481980040     -3.55679901717081     -0.36580446388111
  F   -2.12524889596756     -2.64473425886996      1.40234679016103
  H   2.51661814702005     -0.59424334807283      0.19597659298825
  H   0.92859388464815     -2.50905296600054      0.28509296440330
  H   -2.35475521831569      0.21409810759656     -0.30068657392778
  H   1.66959248356322      1.71294671867774     -0.14086272520125
