15
Coordinates from ORCA-job ewa_inp/doublemontecarlogen3D162
  C   1.28280022627939      1.14732726666878     -0.13680443937357
  C   -0.10362799391289      1.24200484491607     -0.13109337312809
  C   -0.81393318265321      0.05301480761968      0.04648808229597
  N   -0.28090213759540     -1.13928518660255      0.20576054599046
  C   1.05843183347449     -1.20793850399905      0.19747537910864
  C   1.90008241867927     -0.10379136477141      0.02799365292411
  C   3.40067531429412     -0.24721539469630      0.08325451497527
  O   3.94082043472085     -0.01971938304978      1.38780137684051
  F   -2.15407713101360      0.11004704121237      0.05524956028287
  H   1.88845891124627      2.03950199566783     -0.27665386960498
  H   -0.62714177780557      2.18216106591385     -0.26157938839134
  H   1.48431358495413     -2.20189785079211      0.32740178140602
  H   3.86420752288306      0.45900624327235     -0.62042795555911
  H   3.68741084172513     -1.25833528325287     -0.23455806735019
  H   3.21918113472396      0.25787970189314      1.96467219958342
