14
Coordinates from ORCA-job sli_prashanth_inp/doublemontecarlogen3D512
  C   -1.06217385606279      1.30590060325526     -0.42456288132467
  C   0.29184040784373      1.23331670673643     -0.10390224777594
  C   0.83897581212495      0.00009130597798      0.23373362231736
  C   0.07135613282070     -1.16019654369866      0.26133398453055
  C   -1.28137710998322     -1.08325705435155     -0.06026940896769
  C   -1.85451830481962      0.15055852805835     -0.40652709044207
  N   -3.20785228002406      0.26996384115200     -0.73890648545275
  C   -4.19083077458198     -0.42278320528467     -0.87291010717218
  O   -5.21610952996450     -0.98185408289575     -1.03353345486532
  F   2.14970880303640     -0.07559249077163      0.54253241319197
  H   -1.51753096837500      2.25322239204087     -0.69239623773879
  H   0.92253784534241      2.11566083593678     -0.11328987006687
  H   0.53434574831731     -2.10341519307213      0.53066590995140
  H   -1.89657192567433     -1.97794564308329     -0.04473814618499
