24
Coordinates from ORCA-job sli_testing_inp/doublemontecarlogen3D78
  O   5.12490095777509      1.85474709140797     -3.82732696523400
  C   4.84102790988360      0.81158263043365     -3.02247266642815
  O   4.91833159494119     -0.33791079508158     -3.38925368010988
  C   4.42641456866380      1.20668499290270     -1.64278621960829
  C   4.11671011033575      0.32557365543806     -0.64310023667141
  S   3.70118557303533      1.19174810074720      0.78717870895819
  C   3.98400268403055      2.71441268501076     -0.06905793521133
  N   4.34807067974325      2.53919809270575     -1.31339135991677
  C   3.80127084618553      4.02619684015137      0.56768197346962
  C   3.64591053521704      4.16233265186399      1.95811644616621
  C   3.47009024093667      5.41926554602185      2.52963261448640
  C   3.44725794576887      6.56158964892335      1.72752354007697
  C   3.60275911157483      6.43254200647906      0.34552266566036
  C   3.77979438976022      5.17674741358881     -0.23436814664840
  C   3.58589049035769      7.64398706399269     -0.55287281819060
  F   3.29653939401358      8.77420776481338      0.12543223792458
  F   4.78087501252095      7.82788998807992     -1.15681220178805
  F   2.66927700261125      7.51234660382335     -1.53778703200591
  H   4.99385453635413      2.67305352994485     -3.31367530293815
  H   4.11808481334044     -0.75349624275256     -0.69485169241200
  H   3.67297820396688      3.28551534744359      2.59917165874367
  H   3.35326431435009      5.51119884922674      3.60493617076034
  H   3.30798178153990      7.54275892797526      2.16669322056132
  H   3.89327730309330      5.07669760685981     -1.30788297964471
