17
Coordinates from ORCA-job sli_prashanth_inp/doublemontecarlogen3D541
  C   -1.29488660053956      1.21717729700215     -0.07061918932163
  C   0.09095040513678      1.24185182731734     -0.18133507257509
  C   0.82528413240123      0.05618843430026     -0.19845111768014
  C   0.15770314410029     -1.17452436873450     -0.10340292287808
  C   -1.23350220142960     -1.19073595740164      0.00641811384445
  C   -1.98327570003547     -0.00347670378184      0.02515608351115
  N   -3.37285912249295     -0.04231915996164      0.08021402833576
  C   0.90134016076058     -2.49218323684678     -0.10874220614253
  F   1.60634887797618     -2.66981268058520     -1.24416405652337
  F   1.76640490603355     -2.58527026247471      0.92247205329688
  F   0.05202989557658     -3.54162287355886     -0.00433621157462
  Cl  2.57269534408161      0.16560433197854     -0.33773920475373
  H   -1.84867437991389      2.15249861439407     -0.06214837905988
  H   0.61418637948359      2.18923370704148     -0.25314023630720
  H   -1.73961816765277     -2.14713123287768      0.07504447208867
  H   -3.77608394108408     -0.88363408446837      0.46771430293013
  H   -3.82366313240207      0.79482634865740      0.42150954280923
