30
Coordinates from ORCA-job ewa_inp/doublemontecarlogen3D16
  C   -2.78205746545276      2.81193006134021     -5.01581781217589
  C   -3.89601961851808      2.23076413971091     -5.83266591427593
  C   -2.61822516424351      1.42537911685723     -5.62706044409482
  C   -2.62462056875969      0.26058162310522     -4.78495125561944
  C   -2.62015991907292     -0.73173394099503     -4.08994431280511
  C   -2.59194170142188     -1.88317161839269     -3.17350577500097
  C   -1.91155476407670     -3.12979791710091     -3.76799882101884
  C   -2.14180587002603     -3.59235278565836     -5.08916038388693
  C   -1.46370099868160     -4.75554778557666     -5.50939601299569
  C   -0.60366233237681     -5.45332134386923     -4.67462925892031
  C   -0.40067890867655     -4.99002369482003     -3.37593484636661
  C   -1.04608459870699     -3.84443662740146     -2.92925863707863
  Cl  0.68001710649353     -5.86429681554979     -2.29300454200069
  N   -2.94590479858975     -2.93587286681898     -6.01385709846260
  C   -4.04929743042748     -2.21673053908824     -2.73169548148549
  F   -4.85110628641342     -2.50970412594291     -3.78403429328332
  F   -4.08262362084527     -3.25486383992800     -1.88942991725501
  F   -4.59740315729379     -1.15334557509427     -2.09673400066790
  O   -1.89880245861560     -1.53728982311195     -1.97625785598281
  H   -2.90990387393019      2.86559376085395     -3.93965975480115
  H   -2.18240714103600      3.60985469933362     -5.44258397624549
  H   -4.07294660443657      2.62437292534252     -6.82886340066276
  H   -4.78544001527786      1.88653436301266     -5.31503436799845
  H   -1.95289495969493      1.35837960278045     -6.48515886860816
  H   -1.62319648287836     -5.10927125324736     -6.52517298349550
  H   -0.09819269376573     -6.34646601147997     -5.02608605439816
  H   -0.88000780473962     -3.48826373209571     -1.92187125433751
  H   -3.66767384605971     -2.33477666508408     -5.64846690299912
  H   -3.26912798776331     -3.51579870330254     -6.77520938733271
  H   -2.27459603471236     -0.70193462777858     -1.66534638574388
