20
Coordinates from ORCA-job test_6_sl_inp/doublemontecarlogen3D352
  C   1.09077723556198      0.65073826112404     -0.28867033577691
  C   0.21042652611086     -0.41445620448196     -0.53586977258822
  C   -1.16652481077828     -0.18477763067920     -0.53452501934251
  C   -1.63304715903601      1.10862342683011     -0.30805135210766
  C   -0.77794722854429      2.17812835333927     -0.07943554266862
  C   0.59904559498335      1.93505222314448     -0.07121110749077
  C   1.53157752393874      3.10001192418783      0.16855108721971
  F   1.44986425146915      3.99600466837574     -0.83813832262395
  F   1.20692877793448      3.75208429530519      1.30476113704089
  F   2.81452716282154      2.70669336012523      0.26781922806412
  N   -3.09074482660353      1.34455903690571     -0.30610210891691
  O   -3.81728431889493      0.37372502501252     -0.51151732135882
  O   -3.47827763455137      2.49190243061910     -0.10405203435527
  C   0.81739621149446     -1.77806757579960     -0.74117464079844
  O   1.94883303279728     -2.03547169729508     -0.40862836288611
  O   0.03665568420811     -2.72446894547714     -1.31463062051134
  H   2.15534414117454      0.44917134560135     -0.26660307309108
  H   -1.90060617689235     -0.97140170968531     -0.67024485615003
  H   -1.18683667414607      3.16628608530576      0.09356573458500
  H   -0.77833731304764     -2.34344667245805     -1.66992271624308
