17
Coordinates from ORCA-job sli_prashanth_inp/doublemontecarlogen3D514
  C   -0.14331487639573      1.09409886202038      0.49127261584723
  C   1.19963270139983      0.83541198218915      0.22406528790297
  C   1.55041939300759     -0.41110082179070     -0.28524656667342
  C   0.60313827281216     -1.39828069419932     -0.53132855427021
  C   -0.73670917211242     -1.12401446744908     -0.25534375348019
  C   -1.12486585745330      0.12150020410605      0.25212744820465
  C   -2.58369376965264      0.42366184945456      0.55354124870058
  C   -2.83416904562708      0.49392560269279      2.05028972269566
  O   -2.92005769209831      1.47466084508076      2.71646142119865
  Cl  -2.96005892949983     -1.16185522911027      2.81970992827892
  F   2.84689394512035     -0.66701669381735     -0.55013070766977
  H   -0.43061295779615      2.06214984754885      0.89325814868569
  H   1.96937004868750      1.57850443572121      0.40264422610699
  H   0.91733328621628     -2.35688264153358     -0.92998016063258
  H   -1.48578030277557     -1.88885917741267     -0.43988456254669
  H   -3.23249080935404     -0.34006414552359      0.11874366500993
  H   -2.86869423447865      1.40225024202281      0.15429059264158
