18
Coordinates from ORCA-job test_7_sl_inp/doublemontecarlogen3D367
  C   -0.21438570227913      1.21144614764633     -1.06902566919346
  C   0.91534238140898      2.02607520121987     -0.97600194154093
  C   1.96913846925989      1.64601691678346     -0.15503883268733
  C   1.89560169239836      0.45727277617388      0.57105285596459
  C   0.77473270874452     -0.35802902256815      0.47714697202920
  C   -0.30049883732003      0.00966183183545     -0.35077286498767
  C   -1.53199583651880     -0.86320953676211     -0.43893158466636
  C   -2.62177974278437     -0.62753320468050      0.62542166045230
  O   -3.74547899858585     -1.04088319563452      0.49012546914644
  O   -2.25167934153256      0.03352355848979      1.74572605731678
  F   2.92419537001080      0.10605567581474      1.35754108943633
  F   3.06804793761338      2.40870537676564     -0.05276927253501
  H   -1.03546675306532      1.51232227351910     -1.71314429428622
  H   0.99418697157865      2.95438394539014     -1.53198435775215
  H   0.76561230536920     -1.28797418257163      1.03875405955057
  H   -1.25727536216412     -1.92186610789561     -0.35518047775780
  H   -2.02794125111769     -0.75172073024802     -1.40650579261393
  H   -1.32912601101590      0.32498227672213      1.66678692412466
