17
Coordinates from ORCA-job sli_prashanth_inp/doublemontecarlogen3D563
  C   0.37196935980889     -1.19119549516129      0.30825052758008
  C   -0.97315482379817     -1.43427220751789      0.53927588389709
  C   -1.91982667916319     -0.40600007952307      0.43089755359410
  C   -1.54620240227120      0.90632056714444      0.04543367391146
  C   -0.18600900548081      1.11498823516480     -0.21550080410574
  C   0.74362302060099      0.09539233751030     -0.06691521304847
  F   2.03453647220781      0.35738492787737     -0.30465997257078
  C   -2.38287854814137      2.16834647792732     -0.23868769260333
  O   -1.93019412046185      3.00848036329515     -0.98488818670172
  O   -3.54411812554109      2.33712565736806      0.37783080799272
  N   -3.29217063642222     -0.84217476780345      0.74279594553567
  O   -4.10216157212987     -0.02945591288191      1.22240112135023
  O   -3.57093421839983     -2.01867303861692      0.56007486818979
  H   1.11747479018123     -1.97182342571928      0.40819063451107
  H   -1.31529111782611     -2.42415673444254      0.81250707831098
  H   0.12765946839603      2.09274081334265     -0.56004387579534
  H   -3.78752186155922      1.52999228203627      0.88818764995219
