20
Coordinates from ORCA-job raina_inp/doublemontecarlogen3D585
  C   -1.45867024630576     -1.22441082853123     -0.14883164258262
  C   -0.14925010767901     -1.68418156987298     -0.10740983208765
  C   0.90298921982622     -0.75515130407696     -0.02468529759529
  C   0.59574296040193      0.63339346580781      0.00896261948487
  C   -0.71802208665441      1.11492062831926     -0.03253479139349
  C   -1.71338241083824      0.15602983562352     -0.11095187064510
  F   -3.00039147947628      0.56684917726732     -0.15690892200946
  N   1.79085609582920      1.31694303988229      0.08372169722652
  C   2.83576687790656      0.41078356472422      0.09680344936307
  C   2.34014673499623     -0.86568144179519      0.03582007757166
  C   3.15409840142358     -2.13320231221736      0.05604442757959
  C   3.02413548841224     -2.93626000698633     -1.17117900816067
  N   2.91787301288424     -3.56734842477327     -2.13961536729887
  H   -2.29837936897455     -1.90734291714823     -0.21643273164322
  H   0.05308982979907     -2.75025496383659     -0.15086230561650
  H   -0.96766542898432      2.17014386506620     -0.00874907195836
  H   1.89010449806110      2.31827430036356      0.11894568015784
  H   3.86032028527322      0.75206533284441      0.15022305248529
  H   2.86396619374736     -2.77239896370425      0.90143845728590
  H   4.21545153035161     -1.89823047695618      0.19580137983648
