33
Coordinates from ORCA-job raina_inp/doublemontecarlogen3D625
  C   -1.31437172834768      1.12159090759508      1.19651140494793
  C   -0.88170487122573      2.09390751776218      0.09029685776976
  C   0.64715327226880      2.22399788926286      0.02247701301706
  C   1.32106310866868      0.83936060339001     -0.12808416578752
  C   0.89431068498577     -0.18000920171360      0.97150431800244
  C   -0.66326506009277     -0.25714065900571      1.01312139139305
  C   1.42993096077260      0.09402906928823      2.37672351439657
  O   1.85696492555305      1.20631391206637      2.69717654470565
  C   1.41028987684168     -0.99502927152409      3.39919218509270
  C   1.09352900481184     -2.33394956398089      3.10606312681893
  C   1.13082154855986     -3.30998907094587      4.09828071608005
  C   1.48565005278727     -2.93465931445403      5.39070144511709
  C   1.80342929316194     -1.61840264126047      5.72034802419642
  C   1.76716068092295     -0.65710934934093      4.71866688552402
  F   1.52629806679447     -3.87338682127611      6.35065304467244
  C   2.84049594454628      0.93546862388365     -0.33502957946144
  O   3.39103814446359      0.45716109916854     -1.30082788036838
  O   3.54377614175675      1.60831701408692      0.59844802360528
  H   -2.40493389492006      1.00874003655722      1.20028750075348
  H   -1.03914831966156      1.53426763810372      2.17635269416992
  H   -1.33150724573485      3.08009984103694      0.25415923068424
  H   -1.26179648818285      1.73302100280567     -0.87621113824557
  H   1.00770337232969      2.72576536966510      0.92483192840257
  H   0.93430492987890      2.84933447194923     -0.83097589914595
  H   0.96812599164633      0.40213301900502     -1.06870842115910
  H   1.27016599270737     -1.16292988066382      0.66275351156049
  H   -0.98749349069170     -0.94189543380636      1.80360940280036
  H   -0.99579065213759     -0.69261181333870      0.06175369778009
  H   0.82477208230332     -2.63188402055924      2.09876885683454
  H   0.89775131182450     -4.34773226443313      3.88654768467298
  H   2.07534344546894     -1.37208155136156      6.74112228368706
  H   2.01876402440785      0.37565263709960      4.93355114110817
  H   2.97017889353231      1.79751020493816      1.36842465637464
