17
Coordinates from ORCA-job srijon_inp/doublemontecarlogen3D456
  C   1.71609175024998      1.29185017251309      0.00623872023385
  C   0.33703235492020      1.27781524660493     -0.18416351906943
  C   -0.34106964769686      0.05868154527656     -0.24033458048031
  C   0.35250118663474     -1.16103716818647     -0.10922547487438
  C   1.73151450916716     -1.12570822807633      0.07898384901137
  C   2.42140578349944      0.09208296010693      0.13915055078826
  C   3.88968469888960      0.10151209628396      0.34663259090028
  O   4.56894828011218     -0.89829913243713      0.47157647274896
  C   -0.35523728490427     -2.49972407314044     -0.15856499533021
  F   -1.00271757233680     -2.68079036450446     -1.32683106737247
  F   0.51969670979354     -3.51841234015279     -0.02419916524476
  F   -1.26266211559891     -2.61903797613936      0.83171850268944
  Cl  -2.07217706018898      0.10480565679308     -0.47596460895546
  H   2.24515756322400      2.24086539636559      0.05256921380499
  H   -0.22154894135996      2.20116780676853     -0.28833840595800
  H   2.29339250094503     -2.04665742690458      0.18339901825600
  H   4.34628728464989      1.11535582882890      0.38313289885186
