22
Coordinates from ORCA-job sd_inp/doublemontecarlogen3D410
  C   0.98219096267685     -0.95813254660225      0.05898079644291
  C   0.27577764199849     -2.15945563991472      0.08531608879980
  C   -1.10824994096102     -2.17089139423337     -0.10511175686449
  C   -1.78923456486477     -0.97041915128495     -0.31421960450291
  C   -1.08346043397630      0.23058182731389     -0.34127109367538
  C   0.30998338751541      0.25091044413066     -0.16877366523496
  C   1.00961259578529      1.60656842132495     -0.20405418921358
  C   2.53967891417198      1.57834937408875     -0.43991592765291
  O   3.30004993099319      0.87654725380904      0.18476684155067
  O   2.95607201197713      2.46039577540443     -1.35869600822458
  O   0.39436864090161      2.49676398069301     -1.15207033262733
  C   -1.85144164484074     -3.48038037089182     -0.13418348296742
  F   -1.79435740061684     -4.05317687209309     -1.35945717394138
  F   -1.33325306757320     -4.37157214536993      0.73932093570823
  F   -3.15954038287448     -3.32469667920521      0.16785693740101
  H   2.05269423837258     -0.95246164022758      0.22166443362732
  H   0.80401951293286     -3.09086344764149      0.26152781922199
  H   -2.86602726041328     -0.97398943100279     -0.44382535263299
  H   -1.62166745901642      1.16223461500065     -0.48721193302148
  H   0.88284214536447      2.09501101515081      0.77190599274823
  H   2.15459444563267      2.92613514782144     -1.67293667982424
  H   0.06694772681451      1.95745146372960     -1.88759264511649
