21
Coordinates from ORCA-job test_1_sl_inp/doublemontecarlogen3D253
  C   0.52640082356252     -2.97678054607385      1.07678784425708
  C   -0.35890201862306     -1.89374608875086      1.04127719230077
  C   -0.04931699149786     -0.73727890157447      0.30792790393053
  C   1.16979522554054     -0.68803892128907     -0.38820292745148
  C   2.03124996927075     -1.77585646108399     -0.33864953479391
  C   1.73479578456540     -2.92852533305610      0.38437843455413
  F   3.19426562683528     -1.71408016388076     -1.01757912140281
  C   -1.00199455186551      0.44425221399020      0.25651280619212
  C   -0.53312069234092      1.70946851126464      1.01968099274184
  C   -0.61885007643515      1.64182612719022      2.54403256294378
  O   -1.14562000132044      2.49643447773732      3.21279936957111
  O   -0.04023228145295      0.56920099796742      3.14262050700245
  H   0.26899622046357     -3.86491488105383      1.64616038964080
  H   -1.30148048219274     -1.95019647514386      1.57872794865609
  H   1.45089234773705      0.18046679162249     -0.97666367023842
  H   2.43798898211370     -3.75418049794632      0.39283471176370
  H   -1.98597121715793      0.13921257834460      0.62933712336208
  H   -1.14532368752577      0.73212095578618     -0.79147405109506
  H   -1.14012588303209      2.56746365497777      0.72401101539116
  H   0.50655893967362      1.93709863951239      0.74768997858173
  H   0.31651396368199     -0.04724667854009      2.48263052409227
