24
Coordinates from ORCA-job test_2_sl_inp/doublemontecarlogen3D254
  O   6.72174726366087     -0.92268544738736     -1.99474278604458
  C   6.12461421710669     -1.24384161193487     -0.81415572996412
  O   5.42510403569555     -0.43944830198201     -0.25190093446378
  C   6.41274845687714     -2.64950308911169     -0.29864834339211
  C   5.68561325506528     -2.95296675909519      1.02161410873756
  C   5.98558470373491     -4.34491110690640      1.53466527520455
  C   7.07493723828759     -4.57940141987242      2.38809170819496
  C   7.37366650040330     -5.86547661059545      2.83570399203256
  C   6.58822240973340     -6.94871411495764      2.43749080098015
  C   5.50176462513129     -6.72703609847011      1.59081709990570
  C   5.20269748504578     -5.43565852891385      1.14461044154214
  C   4.62239817324924     -7.86353429505710      1.14156837349108
  F   4.56587280921046     -7.93776376379271     -0.20990548329827
  F   5.05679252297878     -9.05939101792145      1.59290955887371
  F   3.34839824961898     -7.70818484431733      1.57099868864297
  H   7.24352884679196     -1.66971972110310     -2.32178686076210
  H   7.49902748470357     -2.76077213062740     -0.17325487133365
  H   6.12314029928441     -3.37552782315848     -1.07116975262719
  H   4.60974694943385     -2.82618550579117      0.86568030954945
  H   5.97690594038237     -2.20202443856704      1.76257367964914
  H   7.68912857049814     -3.74166243344174      2.71053850861886
  H   8.21742995406149     -6.02630640416847      3.50041002608584
  H   6.81158937263782     -7.95247258013189      2.78065363282832
  H   4.34793063640711     -5.28072195269509      0.49106855754880
