18
Coordinates from ORCA-job ewa_inp/doublemontecarlogen3D151
  C   1.69450099327901     -0.46736905470128      0.84977639724235
  O   3.10998342749749     -0.39753409883425      1.05622198997394
  C   3.61587276985695     -0.55963597065932      2.31000486926161
  C   4.76450289534345      0.17461669471345      2.63376913690939
  C   5.38324339714136      0.04458880702481      3.87896677437078
  C   4.85432611733835     -0.81455663219325      4.83552309092793
  C   3.70691678525598     -1.56717654781295      4.54242235819835
  C   3.11462538431938     -1.43859921056535      3.28089409372232
  F   2.02693165478413     -2.19641267759836      2.99162838885298
  C   3.14545123970980     -2.49360279221925      5.55623267092222
  O   3.62356580505426     -2.63934622735746      6.66672765420921
  H   1.51964745955862     -0.00936787943456     -0.12560476346158
  H   1.15433680355371      0.09838226913241      1.61766761706553
  H   1.33595416262462     -1.49937019679304      0.84146229298432
  H   5.15405368106436      0.84825028900748      1.87696923293616
  H   6.27245478006858      0.62770865616570      4.09783110771470
  H   5.30214193103578     -0.93214353091796      5.81656562148134
  H   2.24619071251414     -3.05770189695681      5.24352146668840
