14
Coordinates from ORCA-job test_1_sl_inp/doublemontecarlogen3D247
  C   0.00137670881195     -1.83065190159389     -0.00665430395387
  C   -1.21056645218451     -1.13949387584947      0.00409011109669
  C   -1.19541277365155      0.24974308667589      0.02029213470983
  C   0.01220503089473      0.95972971554670      0.00581312345234
  C   1.21425403647265      0.24056313275714     -0.01518652122964
  C   1.21863683607865     -1.14885154702664     -0.01134315445967
  F   2.37832961341248      0.89429447560453      0.00012938831939
  N   0.01784886360292      2.42479355029448      0.01268802068443
  O   -0.77399987769972      2.98150682760755      0.76832376037749
  O   0.81388514302658      2.98258564798100     -0.73770659881983
  F   -2.35435380634501      0.91262286273747      0.01074364315889
  H   -0.00284214623388     -2.91587798254172     -0.01145733700276
  H   -2.16566728097915     -1.65195323415226     -0.00185332157538
  H   2.16974610479387     -1.66871075804078     -0.01007894475791
