21
Coordinates from ORCA-job sli_testing_inp/doublemontecarlogen3D8
  C   2.15045372837974      2.66510917295478      1.67484292857090
  C   1.67379030067864      1.35575772544910      1.61537279281194
  C   0.74919205792618      0.97131175266279      0.63215893646903
  C   0.30897007785896      1.93540855187514     -0.28663668866014
  C   0.78593692415669      3.24753086000065     -0.22528516426498
  C   1.70883798668639      3.61758980264505      0.75583908962405
  C   0.24994376659852      4.28835256797822     -1.17534371357828
  F   1.19362557239934      5.19098009314834     -1.51952788416214
  F   -0.22231049097269      3.73727984346575     -2.31396491736373
  F   -0.76913691208223      4.97963107561242     -0.61403149572894
  C   0.22135273269434     -0.44439588338174      0.57329504858037
  C   -1.06714555882575     -0.72472585620691      1.36966132236577
  O   -1.38979268930351     -1.83904207754055      1.69506472559916
  O   -1.85636843524624      0.33825896838379      1.64849941703063
  H   2.87141156202668      2.94433883634595      2.43735154067107
  H   2.02646568535853      0.62046417983187      2.33408800949779
  H   -0.38955553849592      1.65881377148458     -1.07125421037332
  H   2.08513114879428      4.63460407580489      0.79201560917148
  H   0.96303477372634     -1.16243925759110      0.93173593018321
  H   -0.00028256339695     -0.72213171853193     -0.46475991620135
  H   -1.42862412896134      1.15733351560884      1.35154863975746
