28
Coordinates from ORCA-job sd_inp/doublemontecarlogen3D4
  C   1.01265933333324      3.29998206576255     -2.42902189088120
  C   0.18626765909981      2.70499651638416     -3.38311047503854
  C   -0.29192197625153      1.40976311220732     -3.17728509226609
  C   0.07638329078827      0.73673062866521     -2.01955324141614
  C   0.90605204726870      1.29492010452095     -1.04348189723575
  C   1.35867177039263      2.59831390046075     -1.27264170934187
  C   1.28621385926467      0.52210576426729      0.19531052235008
  C   2.57633267299104     -0.31750837889777      0.04469541762483
  C   2.95431458403663     -0.99272995922790      1.40055121346151
  C   3.33366013294984     -0.00157354858461      2.47635109139399
  O   2.61000132500556      0.40752089095282      3.35789193628426
  O   4.61132180760908      0.43053584050015      2.32900293809053
  N   2.41261343151720     -1.26346351712276     -1.05376481857525
  F   -0.40344967650450     -0.51496911321690     -1.82602786660127
  Cl  6.27793350609437      1.47724204468632     -4.03071920839283
  H   1.38547798661755      4.30611706879028     -2.57800426024083
  H   -0.09218164672528      3.24582336264384     -4.28286734250720
  H   -0.94360246921594      0.91584604038352     -3.88957552317045
  H   1.99784153483076      3.06585931987948     -0.52591870520868
  H   0.46762867359921     -0.15388517728079      0.47184663937263
  H   1.41013840149124      1.21492871753643      1.03379830982317
  H   3.40378102563298      0.35528750620568     -0.22768208371099
  H   3.80520117889306     -1.66056389103452      1.22803225654460
  H   2.10863184533574     -1.57984610922971      1.77035854763689
  H   4.76124368521931      1.07836280795628      3.03951637797200
  H   1.61166421724087     -1.86895197353997     -0.88979428482213
  H   3.23209144237103     -1.85700877205184     -1.14901581366845
  H   5.05109035711422      1.81614474838367     -3.86615103747674
