25
Coordinates from ORCA-job ewa_inp/doublemontecarlogen3D12
  C   2.83975946555447      1.67482396681108     -0.15614247136573
  C   2.09757404218985      0.51879998512618     -0.82999749050254
  C   0.64541004147543      0.43717473635121     -0.37355956531853
  C   0.30928952223524     -0.28142065583167      0.78246959537505
  C   -1.01079788748130     -0.32567060799510      1.22469390066133
  C   -2.02074981939747      0.33946913120414      0.52129812705963
  C   -1.68967533681856      1.04983627499543     -0.62860429381949
  C   -0.36363244762558      1.09767162149473     -1.07477659295853
  C   -2.74755104840154      1.76473311114146     -1.42977236952096
  F   -2.85958767464809      1.24073131394330     -2.67225815313810
  F   -3.96330285340348      1.69634685539673     -0.85045701856034
  F   -2.44364704799889      3.07335647000197     -1.58772610778019
  C   -1.38466298923110     -1.07179576603568      2.48036755872005
  F   -2.35713064254336     -1.98160655417341      2.24380729704660
  F   -0.33601151092879     -1.72758057404255      3.01814242517719
  F   -1.86417926533436     -0.22919701458867      3.42366482346003
  O   2.82513858682607     -0.66234313454704     -0.50584423587918
  H   3.87478994256690      1.70488189264071     -0.50816894353863
  H   2.84543626988917      1.53528356794706      0.92920719555440
  H   2.35903388097628      2.63096372544042     -0.38223665486030
  H   2.10503705949272      0.68544867776891     -1.91975441228159
  H   1.08754569944753     -0.80804421988165      1.32296777634389
  H   -3.04869261728145      0.30003541864436      0.86248335935283
  H   -0.12239318370542      1.65320576952203     -1.97758908535510
  H   2.40294981414572     -1.40845399133395     -0.95311466387176
