20
Coordinates from ORCA-job raina_inp/doublemontecarlogen3D592
  C   1.12773668710524     -1.31239389525409     -0.02430513653804
  C   -0.27795824972529     -0.76785604905259     -0.02026994213730
  C   -0.20724364657852      0.63772834099853     -0.01932794569442
  C   -1.34728039014184      1.43332227180709     -0.01611566431423
  C   -2.58717360823261      0.78233268029240     -0.01363560032810
  C   -2.67883695637950     -0.61308043436155     -0.01424666128245
  C   -1.51666808768763     -1.39332759988655     -0.01762978096367
  C   -3.86348623123245      1.58271247783844     -0.01201449417854
  F   -4.62093166281116      1.30829600305033     -1.09928551349021
  F   -4.62472431822268      1.29869987548430      1.07007078134932
  F   -3.63548626875750      2.91449108446274     -0.00577330070411
  N   1.13404122196043      1.03138906366802     -0.02219365390329
  C   2.00958527900043     -0.04917959153612     -0.02528436105790
  O   3.22071146888433      0.02194713627870     -0.02824589691113
  H   1.36293142544489     -1.91850025912124     -0.90665238378036
  H   1.36739771621820     -1.92034577240693      0.85555597162442
  H   -1.29151092228150      2.51571838391720     -0.01546645058302
  H   -3.65437209011728     -1.08793471485961     -0.01207221893070
  H   -1.58980182205264     -2.47727410164268     -0.01821352554767
  H   1.46687045560708      1.98460510032362     -0.02220422262862
