18
Coordinates from ORCA-job srijon_inp/doublemontecarlogen3D458
  C   0.93138202886791      1.28615287071259      0.09546706484587
  C   -0.41247481168196      1.19068246466255      0.43408648265865
  C   -1.07727617708184     -0.03957315101895      0.36467516202084
  C   -0.38536720821137     -1.19289066598866     -0.04069703154084
  C   0.97176647843177     -1.07623143397274     -0.36089520202364
  C   1.63883929122709      0.14797977793459     -0.31485018244077
  C   3.09547929128083      0.15855536067585     -0.68079919101806
  O   3.77791101471117     -0.83767194656264     -0.68601333347168
  O   3.63562064291564      1.36063946499825     -1.01093619429179
  C   -0.94617656556346     -2.59957773984330     -0.15214589534481
  F   -0.37982309269681     -3.39856085038648      0.77948548227006
  F   -2.27437517940191     -2.69083614023108     -0.01019307225399
  F   -0.63337688835852     -3.12153318399285     -1.36079451502035
  Cl  -2.76603408704891     -0.03073356169760      0.82198686636388
  H   1.42285900295059      2.25089315643588      0.19330682063627
  H   -0.96139681403237      2.06561513791814      0.76314473638188
  H   1.53214484212587     -1.95464157544125     -0.66209554067271
  H   2.94367823156625      2.02312201579770     -1.14383245709878
