17
Coordinates from ORCA-job sli_prashanth_inp/doublemontecarlogen3D503
  C   -1.26445557149617      1.07705372845103      0.34290094309542
  C   0.12811960503243      1.14380978352221      0.30597597320182
  C   0.84487594008584      0.00391085916121     -0.04364798890325
  C   0.21163704332613     -1.19400477565311     -0.35162388464107
  C   -1.18288611611728     -1.24257937451988     -0.30429121738525
  C   -1.93832689370568     -0.11379273987852      0.03625878300326
  C   -3.45527612044789     -0.17276197915883      0.04524342863929
  N   -4.02301969717102      0.65191247114176      1.11680787337480
  F   2.19511831119952      0.06027698548089     -0.07704691412458
  H   -1.84801315836121      1.94781455754900      0.62420271593214
  H   0.66161129584224      2.05848744834205      0.54373862855058
  H   0.80508831202058     -2.06423328837631     -0.61192683752776
  H   -1.68871033455993     -2.17750863341730     -0.53464347406852
  H   -3.76406305912812     -1.23259763890255      0.07417031097436
  H   -3.83784562027233      0.22726460893933     -0.90455249502877
  H   -3.79202688238996      0.24954863483292      2.02237766289284
  H   -5.03721705385711      0.66321935248609      1.04804649201469
