71
Coordinates from ORCA-job sli_testing_inp/doublemontecarlogen3D611
  C   0.08101445055520      7.82363553624312     -3.57075713161946
  C   -1.34956658534760      7.73098149857207     -4.12959637196459
  C   -1.37414467538937      7.54827423154974     -5.65813605822562
  N   -0.89236603194575      6.22515102321774     -6.03544426806723
  C   -1.64619846912373      5.14204271784809     -5.40038515103323
  C   -1.64163149176590      5.29213855997070     -3.88005878188171
  N   -2.13625541137338      6.63162730225837     -3.51424515505932
  C   -2.65473624908500      6.78017226050132     -2.23576188336144
  N   -2.43224277764154      5.83001457533012     -1.36890279622936
  C   -2.90032740307355      5.89313541847211     -0.06544924523609
  O   -2.76409415334399      4.97954234877056      0.72950516086256
  N   -3.50203957881381      7.11464904192137      0.35861410287618
  C   -3.87170263134513      8.08799008631457     -0.55329759906659
  N   -4.60325096821431      9.11594188495696     -0.10683116955934
  C   -5.07229164876012     10.01604368171589     -0.97527528290823
  C   -4.83178369963781      9.87432171968894     -2.35330928466179
  C   -4.05324632025507      8.83818322418905     -2.82669229430485
  C   -3.49642672948659      7.93283634725034     -1.91136883076910
  F   -5.38733986173103     10.73575186823936     -3.22601700493187
  C   -5.90531893633763     11.12503436755978     -0.44616810790803
  C   -5.58796914092877     12.47727016169659     -0.68572893278102
  C   -6.38039856310089     13.50304862771686     -0.15921342520557
  C   -7.49882462846144     13.19251876653464      0.61258467319956
  C   -7.84104883796676     11.86548427121190      0.86879801167339
  C   -7.03670103706879     10.86641020854466      0.33528693606376
  F   -7.39073839914569      9.58446610342793      0.55503919504518
  O   -4.46986928601575     12.72921781085715     -1.42165082215594
  C   -3.81939263327419      7.25428332582776      1.76130546865285
  C   -5.08882621349693      6.87995864859868      2.22823895264483
  C   -5.32217275128625      7.02438979083326      3.59709057713423
  C   -4.30598597288164      7.51424246724250      4.41348819815295
  N   -3.09726599041484      7.85536121635646      3.96384949429874
  C   -2.84257521821164      7.72985500095850      2.65110456026270
  C   -1.43096895020912      8.09725084699403      2.21592047650175
  C   -1.06824598377257      9.52148858560617      2.67120807548657
  C   -0.43490378863634      7.05525488406230      2.76262843033531
  C   -6.15350547624672      6.35549411790764      1.30162052783877
  C   -0.06490726047012      5.91238368119085     -7.10097522979822
  O   0.06702811798800      4.74990637934345     -7.47884250041303
  C   0.69678595609425      7.02262230907846     -7.75680419874600
  C   1.40396200607575      6.77481338081171     -8.86188531654962
  H   0.56886152676131      8.72748577078302     -3.95175882597102
  H   0.69132538483090      6.96515850448381     -3.86089170179996
  H   0.06622214523025      7.88291660402859     -2.47862119121885
  H   -1.85226071529844      8.67321155960209     -3.90936304392238
  H   -0.77133068794805      8.32836943461946     -6.12036054470816
  H   -2.40954578767119      7.67592115196905     -6.01207675633484
  H   -1.19060119166607      4.19848931730173     -5.69978576023531
  H   -2.68385771674463      5.15448650596356     -5.76737119228735
  H   -0.63839118866918      5.10827850544482     -3.47533732567612
  H   -2.30247354147046      4.55283473467437     -3.42648084505696
  H   -3.92056098970990      8.72221822839341     -3.89535450356231
  H   -6.11410524133737     14.54016445392067     -0.34882419014542
  H   -8.10902604496466     13.99374418485285      1.01811573784156
  H   -8.70886709681167     11.59322558102380      1.45806792172703
  H   -4.36350573355205     13.68408322516812     -1.52237328478118
  H   -6.28376976182690      6.75002942854059      4.02151047589941
  H   -4.47151827396515      7.63203746988948      5.48391026460565
  H   -1.38691239648191      8.06823892445560      1.12221353092906
  H   -1.14674912840465      9.60519790913798      3.75859821880695
  H   -1.73915318189603     10.26464078889855      2.22581724505268
  H   -0.04211678365285      9.76690727579357      2.37503481998828
  H   -0.46113972602095      7.04869399596986      3.85674946765802
  H   0.58537666446718      7.29318666439994      2.44075609562647
  H   -0.68548309329186      6.05165371573029      2.40552112544864
  H   -5.75119555500368      5.59337872514252      0.62759204694546
  H   -6.56371142577423      7.16980684507317      0.69471023695700
  H   -6.97432574782513      5.90969408397821      1.86938583264530
  H   0.69522108316444      8.01978490463183     -7.32971410194571
  H   1.41553810675983      5.77510781003370     -9.28524275357046
  H   1.97938932232008      7.55159541672251     -9.35573299750738
