16
Coordinates from ORCA-job raina_inp/doublemontecarlogen3D589
  C   -0.14471292144438     -1.84777071340403     -0.06903288509292
  C   -1.30581715447814     -1.08794671465278      0.05347627671987
  C   -1.21627256317785      0.30129470138433      0.14231116009726
  C   0.02301039957354      0.98193054931501      0.10572095861779
  C   1.16284520296819      0.16237357665311     -0.01851601414609
  C   1.09880764564608     -1.22556573264317     -0.10333328683991
  F   2.38144998612730      0.70666210074087     -0.04254132040626
  C   0.18193840338065      2.48525798267297      0.17790038105867
  O   1.22439375110320      3.04361445237197     -0.06967088002321
  O   -0.89801566709090      3.20471739977794      0.55119510893315
  O   -2.35863477784589      1.05747081379087      0.26368248086115
  H   -0.21327677673018     -2.92906173429142     -0.13663718638743
  H   -2.28116879475086     -1.56815265428136      0.07837302718230
  H   2.02306682057403     -1.78448929868756     -0.19296006706314
  H   -1.68094538594100      2.63550234186624      0.64804874209791
  H   -3.13180816791379      0.48538292938700      0.35056350439086
