22
Coordinates from ORCA-job sli_prashanth_inp/doublemontecarlogen3D521
  C   0.47966067816448      0.83179867414261      1.03338968789560
  O   0.64533833930744      2.22524613289685      1.28212071774872
  C   1.74613926112662      2.85004943351870      0.81096578946362
  C   1.85794646866568      4.22844827487799      1.10411979929618
  C   2.96012359654678      4.94194850873496      0.64648129911637
  C   3.96858524215500      4.32111894539156     -0.10402026986589
  C   3.85755322176460      2.95104613102716     -0.36778508585558
  C   2.75932325235269      2.22058887595090      0.07223705600523
  C   5.18529396973815      5.03183195213445     -0.60716831374805
  O   6.18874894161352      4.45490424264864     -0.95805604601178
  O   5.13079578281803      6.39032667749303     -0.66229856220901
  C   0.79359564711299      4.91458304951377      1.92417471724214
  F   1.07928233504814      6.22855490622203      2.09662636479782
  F   -0.41897921582025      4.84937942506301      1.33590119749986
  F   0.67389392644539      4.37215554798750      3.15327914321768
  H   1.29294417943092      0.24753263802820      1.47979120221520
  H   0.42417505007162      0.62244604621071     -0.04145320551944
  H   -0.46444957513750      0.55952966749289      1.50563162415864
  H   3.02863780769812      5.98924803346178      0.92279143702917
  H   4.65181366424939      2.46903550034682     -0.92807029191432
  H   2.69529660390180      1.16386417857119     -0.15627807810786
  H   4.22622082274636      6.70032315828521     -0.51767018245432
