23
Coordinates from ORCA-job sli_testing_inp/doublemontecarlogen3D80
  C   -0.08286995823123     -6.17169511578179     -0.67563241600640
  C   0.58035176916250     -7.02838552562476     -1.54854794251543
  C   1.92842317533975     -7.31792474623538     -1.32274456796604
  C   2.59776862899768     -6.77709690191879     -0.23138589632371
  C   1.92795602168154     -5.92917930808481      0.65337144246955
  C   0.58425810012144     -5.62004260252618      0.42408939425006
  O   -0.16260927388635     -4.78921773427041      1.22682157948412
  C   0.45773629484319     -4.14414449340491      2.33283039161911
  C   -0.55829098269585     -3.21544881536632      3.00282969434080
  O   -0.26457796019322     -2.57249076212495      3.97875475153609
  O   -1.77189106306137     -3.17134771405580      2.43014965249919
  O   2.68236054513925     -8.19131072106342     -2.11594152735569
  C   2.45349192296457     -8.27088900765822     -3.44981580659398
  F   3.46622249747338     -8.94436133865357     -3.99306402198897
  F   1.30944289259522     -8.93350942702001     -3.73778609967072
  F   2.36858411112274     -7.06235027876111     -4.03316119075248
  H   -1.12779514290572     -5.92640025395209     -0.83534299731494
  H   0.05052342458683     -7.46229323601762     -2.38709174509240
  H   3.64274825638479     -7.02348444108241     -0.07691291399711
  H   2.46551667295052     -5.52114245431822      1.50091296993500
  H   1.31554730213807     -3.53842360757518      2.01446117990445
  H   0.80410110818275     -4.87019349037944      3.07883267810623
  H   -1.76569834271049     -3.77191802412452      1.66364339143330
