35
Coordinates from ORCA-job test_5_sl_inp/doublemontecarlogen3D32
  C   1.65721939933594      5.27241373053572      1.45087224220339
  C   1.24667592316244      6.38732192350397      2.42534208519518
  C   0.24941795047441      5.67561764917115      3.34814873461114
  N   -0.45241959941968      4.75835635214483      2.41098400904511
  C   0.34027399359171      4.54542138138186      1.15983904309778
  C   -1.56126529790791      4.09917607296711      2.67891044497231
  N   -2.06551862832332      3.86682835104475      3.88187298578214
  C   -3.45246622758940      3.37053749079910      4.10999957870109
  C   -3.49985349983480      3.11079105361043      5.62011964028607
  C   -2.05223842522257      2.72297068217574      5.95418711450087
  C   -1.22086587227092      3.68917526385884      5.10828037409959
  Cl  -2.48820225420937      3.54314690818556      1.30029612442887
  F   1.55669823106428      3.04964225009510      3.68070343000023
  P   1.38791756198772      1.44370806349193      3.22790295525796
  F   1.17615746284541     -0.08887055836520      2.77352460268978
  F   1.97771936730150      1.85176728415435      1.75569200846531
  F   0.72953909301329      1.14855522365363      4.70010474660056
  F   -0.13741106275832      1.82442327180082      2.67082533035700
  F   2.87166389168523      1.14312132520351      3.78922072522916
  H   2.34131285639139      4.57307053176553      1.93691157543886
  H   2.12114550631975      5.64452598572596      0.53404626484826
  H   0.74974689668104      7.20504213089588      1.89021278732073
  H   2.08574553372302      6.80575606766029      2.98690184109593
  H   -0.47981363905928      6.33960322253962      3.81987949322608
  H   0.77921788552269      5.09655975092945      4.10454427012832
  H   -0.20335628588607      4.99101809353593      0.31877182215526
  H   0.47204297929942      3.47561770336863      1.00023270469174
  H   -3.59641457862790      2.44578027807410      3.54339994075410
  H   -4.18115228222750      4.10867012799837      3.76468087311148
  H   -4.22933493327562      2.33494051720377      5.86575176683124
  H   -3.78581274905949      4.02329847405807      6.15603813912545
  H   -1.82974835103368      1.69906227195499      5.64250603774566
  H   -1.81554399803079      2.81731049098811      7.01621254565908
  H   -0.25269036169258      3.27738476485332      4.82717636500194
  H   -1.09843648596992      4.65661586903420      5.61205739734171
