57
Coordinates from ORCA-job sli_testing_inp/doublemontecarlogen3D613
  C   4.21490862463340     -3.17276663212129     -1.05833473551763
  C   2.92078112723039     -2.36646078953567     -1.21717086789117
  C   1.68082152441711     -3.25878683691603     -1.53066390435290
  C   0.52015036353573     -2.54994345664017     -0.82473834215960
  C   -0.82838207889934     -3.26260559662066     -0.63372690458998
  C   -1.42930109288699     -3.88355390601258     -1.93307328412156
  C   -2.69873822445400     -3.18664475221669     -2.45377487972021
  C   -3.72819261135473     -2.82893284163353     -1.39795028490061
  C   -4.97811405359106     -2.46704197717546     -1.74192913585378
  C   -5.93448587070883     -1.86833407581177     -0.79446785082332
  O   -7.07928400383424     -1.56146646024806     -1.12097356933398
  C   -5.41688738650646     -1.61197615752492      0.56888130660379
  C   -4.19231421380352     -2.00594700459859      0.94213955659791
  C   -3.26906240621107     -2.81370068933847      0.05656421344290
  C   -1.80268712675323     -2.26410300865406      0.04004498464814
  C   -1.25978966351376     -1.69664172941198      1.37277355190217
  C   0.17311086324774     -1.13339445517326      1.22744768385464
  C   1.15084900458433     -2.09618058406160      0.52583669643885
  C   2.46604688719398     -1.41032060539458     -0.03162333131346
  C   3.52084160852186     -1.14287426926739      1.04363583858300
  O   4.13317683228260     -2.03076271281457      1.61947241774024
  C   3.80919026547365      0.30363805321875      1.44169793960733
  O   4.75064766950507      0.35845294122514      2.47448171807643
  O   2.05308528913423     -0.14505021056246     -0.57089925591131
  C   1.49872702724022     -3.28110480987733      1.45464464863951
  O   -1.38047200823708     -2.71541741956322      2.36732154517012
  F   -1.85544680408667     -1.09871837352292     -0.77590609269073
  C   -3.35364521120859     -4.27247002161439      0.62660486333810
  H   5.08877336359941     -2.53035104083459     -0.91470175304066
  H   4.37947952698111     -3.75957280503460     -1.96909870129681
  H   4.17424381260848     -3.86041159583821     -0.21127821093023
  H   3.07075800407168     -1.69287897426497     -2.07272810411509
  H   1.53523132954596     -3.35440062447727     -2.61093034752472
  H   1.83185381450701     -4.27180350981827     -1.13937169739140
  H   0.31570726679638     -1.63229611564920     -1.38646773450628
  H   -0.68868404014424     -4.07565140250140      0.08478604861841
  H   -1.64596063043224     -4.94240278337452     -1.75632422115730
  H   -0.68082826930669     -3.86844710464806     -2.73097503546429
  H   -2.40781494372272     -2.24185026628445     -2.92880568951011
  H   -3.16292453691449     -3.79503986192227     -3.23825682361344
  H   -5.31507524896345     -2.52383165214162     -2.77491685521218
  H   -6.09317773918909     -1.10667222838976      1.25285822286237
  H   -3.86176163535915     -1.86701349353068      1.96865278000043
  H   -1.91186852537147     -0.84990893419857      1.63091104813209
  H   0.10363013948230     -0.20921536917227      0.64990151954628
  H   0.53298450454121     -0.85739716846551      2.23004640571525
  H   4.16011449539386      0.84965666187882      0.54990633843429
  H   2.86166315911672      0.78601625297303      1.72711756538866
  H   4.99599511745162     -0.56918254118055      2.64468472368604
  H   2.66857760484946      0.10756994951409     -1.27079646669875
  H   1.93641813571327     -2.92039264661915      2.38901698611347
  H   0.59794150432956     -3.83840000782020      1.71168917099583
  H   2.22331100162012     -3.96965884764035      1.01776106930638
  H   -0.96106408508089     -2.39363831144734      3.17595074281779
  H   -2.99172589288282     -4.29394285824329      1.65532411722993
  H   -2.77256850274309     -4.98486723342079      0.03881625089652
  H   -4.39785306144850     -4.59284710558016      0.60571412525461
