16
Coordinates from ORCA-job leia_inp/doublemontecarlogen3D193
  B   1.03038364712057      0.11750325181615      0.01670564048671
  C   0.22697845690429      1.29551776452414     -0.63137750118943
  C   -1.04282687003959      1.62860536047579     -0.12082406444929
  C   -1.81450211433081      2.65224369589594     -0.66957043999309
  C   -1.32859508670763      3.37298864581836     -1.76325460003043
  C   -0.07699804762544      3.07099683024296     -2.30001644029151
  C   0.67351759855369      2.04815527543804     -1.72754842417279
  F   1.87861533405177      1.79170479936295     -2.27001628741793
  O   0.45295166326493     -0.66596652824109      1.02136129306782
  O   2.32048508826956     -0.13084356177819     -0.35173565763614
  H   -1.41041956058114      1.08548965896578      0.74490217004621
  H   -2.78714069150371      2.88895771953251     -0.24787589383366
  H   -1.92264949421230      4.16959428196218     -2.20223885012200
  H   0.32627766006368      3.61546309153310     -3.14760972421770
  H   -0.22816604937892     -1.26334496700720      0.69345417061486
  H   2.65401846615105     -0.87955531854148      0.16233460913841
