17
Coordinates from ORCA-job sd_inp/doublemontecarlogen3D425
  C   -1.13164480771504      1.23400721573351     -0.02475126509133
  C   0.25905898358781      1.22468675329330     -0.04995891061195
  C   0.96737524458780      0.00951127838105     -0.06185795062763
  C   0.23658807929215     -1.19557849120889     -0.05080783863130
  C   -1.15076157007072     -1.17882830093604     -0.02542587929046
  C   -1.84901839321357      0.03545003276682     -0.01085914096181
  C   -3.34656340302421      0.01780155334475      0.02984332196553
  F   -3.87681757160058     -0.63212325068674     -1.03627937697072
  F   -3.81333200112075     -0.62584163552287      1.12965082634674
  F   -3.87678187831616      1.26178980254995      0.04182462087399
  N   2.35468601887410     -0.00534391894519     -0.13682798557391
  H   -1.66473178041943      2.17842820160550     -0.01220458781074
  H   0.80663227820351      2.16378337355434     -0.06328242674020
  H   0.76839480771719     -2.14367605332675     -0.06513524012233
  H   -1.69888313648733     -2.11634963958689     -0.01355954988833
  H   2.82540773701996      0.83209689849190      0.17527341406786
  H   2.80793139268528     -0.84993381950775      0.18176796906660
