18
Coordinates from ORCA-job ewa_inp/doublemontecarlogen3D153
  C   1.28892089438138     -0.48108385717540      0.29431274379520
  O   2.50438740942507      0.23619411074565      0.41648297582607
  C   3.12686070380015      0.23526826400369      1.63682348910223
  C   4.32098390629003      0.96938675189434      1.70719350701038
  C   5.00985340456344      1.01760579800814      2.90227775848628
  C   4.58002954291078      0.36822678096988      4.07069081549026
  C   3.38991551398489     -0.35833918786207      3.97284717912335
  C   2.66695276672285     -0.43219380366753      2.77569419122507
  N   5.29999206969984      0.51834368883654      5.26327631842477
  F   6.17704849709366      1.71248422546532      2.97065242500605
  H   0.95992536240122     -0.34728698037767     -0.73789348209543
  H   0.51655439783069     -0.09166797341226      0.97159400373633
  H   1.42683220886435     -1.55311149795090      0.49138864545021
  H   4.69974737617768      1.48738747039960      0.83368294215581
  H   3.01447769999950     -0.87498915850609      4.85259563571457
  H   1.75091870990938     -1.01011936920806      2.75259592057831
  H   6.25828529561918      0.80604121952742      5.11409003915879
  H   5.24247424032589     -0.27692648169058      5.88547489181172
