17
Coordinates from ORCA-job srijon_inp/doublemontecarlogen3D47
  C   -0.77764225286964      1.95653081368469     -0.14758386609916
  N   -0.05463430763761      0.70123603562677     -0.08794225744133
  C   -0.58573627732277     -0.55465381728714     -0.00403925739907
  C   0.48342892204965     -1.43831289253479      0.00241207596280
  C   1.61540479599973     -0.60008454265209     -0.07423421377424
  N   1.29920209557655      0.69123996878434     -0.11357629682927
  C   3.05078176318229     -1.01931400181949     -0.08195735673996
  F   3.74863796339470     -0.42979486607523     -1.07348873403157
  F   3.68042390514077     -0.71813825422217      1.07624876624252
  F   3.14662429013456     -2.35965549581639     -0.25074193723543
  N   -1.97125070347041     -0.74851576526534     -0.02522082552210
  H   -1.68154641872035      1.82125063752159     -0.74706939685776
  H   -0.12539998679754      2.69250158476452     -0.61740453263718
  H   -1.05394451368742      2.31294939775778      0.85196182970684
  H   0.45253405704254     -2.51549429675238      0.05603521050044
  H   -2.45746928763707     -0.30627392627087      0.74876899498112
  H   -2.21160404437800     -1.73157057944379     -0.05552820282664
