19
Coordinates from ORCA-job sd_inp/doublemontecarlogen3D389
  C   1.60675557805064      0.04060008661279     -0.12050841586636
  C   0.66590688775074     -0.96034917865935      0.10656105934632
  C   -0.69005730811317     -0.67715770086570     -0.09727241800069
  C   -1.10069929523595      0.59613989253256     -0.50316500348240
  C   -0.15075820495788      1.59120042144699     -0.70251816048869
  C   1.21510684165230      1.32711815984545     -0.51066247701747
  C   2.29172174428857      2.34489753695302     -0.73341349500296
  O   3.44880958580716      2.05408080551547     -0.92805048889511
  O   1.91510690865971      3.65237408926156     -0.71058341542038
  O   -1.70211532959833     -1.59559626683245      0.09336191049923
  C   -1.40025704770269     -2.93764893044731      0.00453368115215
  F   -0.79997646187206     -3.37122142971087      1.14821210525860
  F   -2.56936790717378     -3.58493001242032     -0.11554488042622
  H   2.66484411863498     -0.15693865856777      0.01460029673534
  H   0.98068409098217     -1.93356162657804      0.46341734611630
  H   -2.15705585472471      0.77959260723987     -0.66721222761067
  H   -0.48766857150769      2.56323056503172     -1.05489205729529
  H   1.01328648750179      3.73733520073282     -0.37176328899294
  H   -0.74427626244181     -3.16880556109045     -0.84357007060876
