14
Coordinates from ORCA-job test_6_sl_inp/doublemontecarlogen3D338
  C   -1.32387817420517     -1.20900045918017      0.13862581422366
  C   -1.95364800361725      0.03370921506829      0.08141815773567
  N   -1.28832712962010      1.18961796396204     -0.03858273331402
  C   0.04475955519543      1.13676657387694     -0.09303821770944
  C   0.75479368569698     -0.06166152556745     -0.02372022204903
  C   0.07576728806694     -1.27789852296177      0.08485515282894
  C   0.81847396871281     -2.58071881720422      0.20278865142972
  O   1.84065394587263     -2.71566684421696      0.82368012660173
  O   0.23491605720509     -3.63818746442349     -0.42166263211307
  F   2.08924127814885     -0.02542025227871     -0.09479151073844
  H   -1.91555311050326     -2.11225164378275      0.26078203491243
  H   -3.03770174353531      0.10295842955710      0.13600244323042
  H   0.59040390937887      2.07224534268175     -0.19487274628651
  H   -0.49220152679652     -3.33665199553060     -0.98515431875206
