20
Coordinates from ORCA-job sd_inp/doublemontecarlogen3D378
  C   1.74564129803107     -0.30981717348176     -0.02042825137514
  C   0.77555498832002     -1.30562735821823      0.10135458007953
  C   -0.58092394499727     -0.99607600548134      0.01206974427452
  C   -0.97430909454090      0.33031680968106     -0.20662914939544
  C   -0.00665440756760      1.33900378656611     -0.33272782150945
  C   1.34365982770476      1.00961266453408     -0.23685717163241
  C   2.36314617725967      2.11724738324869     -0.34833293131346
  F   2.10792874975364      2.90597792555547     -1.41502133714171
  F   2.34324756381945      2.91350306181294      0.74279463573835
  F   3.61679916537104      1.63968457105037     -0.47880772982813
  N   -2.32291634383755      0.62365132462943     -0.29783840391289
  C   -3.17007926678616      1.46143241777525     -0.46138967693355
  S   -4.37030079090454      2.47178276509575     -0.65905476642113
  C   1.17510161437676     -2.74853847227570      0.29444924319308
  F   0.90345221778637     -3.48014851944495     -0.80878505535631
  F   2.49154190126465     -2.87801013198462      0.55385342473183
  F   0.49677809259738     -3.31372707297146      1.31666095428748
  H   2.79693534572459     -0.55724624410115      0.04924636945074
  H   -1.33735660490697     -1.76680053593352      0.10969177149647
  H   -0.31507648846841      2.36405880394356     -0.50875842843237
