20
Coordinates from ORCA-job srijon_inp/doublemontecarlogen3D45
  C   -1.36653117213877      0.21827909543007      0.52513166072349
  C   -1.36954636274169      1.57936484831275      0.89097535810203
  C   -0.27583098361490      2.10124527334174      1.54511403019144
  N   0.74494321945018      1.25721595145734      1.81554274003904
  C   0.84283699697350     -0.02463247976571      1.45190940725401
  C   -0.27128307157305     -0.57908534148231      0.80899517969555
  F   1.81419072372475      1.80093839079920      2.46201320766860
  C   1.82597940437260     -1.21493792760400     -2.43745336414257
  F   1.88072589467420     -2.44928469357669     -2.95668361817879
  F   0.52316709904089     -0.90935346391943     -2.22380283085722
  F   2.30708126185662     -0.34998171875730     -3.33988164434435
  S   2.77064609895882     -1.12028510970043     -0.83840143031342
  O   4.17084212978690     -1.33976197111765     -1.21000544889700
  O   2.43198645010962      0.26074356089166     -0.35534069733234
  O   2.12409136936409     -2.17220178303953     -0.00109222697140
  H   -2.22362892035485     -0.20144538765398      0.00909924536082
  H   -2.20716330118911      2.22862770826671      0.66619826584941
  H   -0.14779324795103      3.12413979711754      1.87279814605399
  H   1.71857391581164     -0.57857392695103      1.75238424368828
  H   -0.17662750456045     -1.60996082204894      0.49447977641044
