17
Coordinates from ORCA-job srijon_inp/doublemontecarlogen3D459
  C   1.52326142070379      1.33825257894411      0.08854084376115
  C   0.15299834968771      1.29409388933230     -0.14480063261400
  C   -0.51065230987333      0.06908851590998     -0.23130111484208
  C   0.20209634549094     -1.13178429797226     -0.08594169575408
  C   1.57744939605193     -1.07955384801971      0.14586602768687
  C   2.24481897275086      0.14597052721773      0.23667506966645
  N   3.61847122451658      0.12813920453863      0.47532642576203
  C   4.53606870722453      0.90171905768851      0.64209803228561
  O   5.51008185417148      1.53907415978884      0.81478899681841
  C   -0.47393829547588     -2.48486198353071     -0.16195898320024
  F   -1.08615974470077     -2.67396874206142     -1.34716003590119
  F   0.41868365756506     -3.48828567632248     -0.01059018252942
  F   -1.40313410185488     -2.63062563129563      0.80407842291423
  Cl  -2.23712356287891      0.09159958214097     -0.52068839920348
  H   2.03246549655380      2.29480635174981      0.15684480777102
  H   -0.41145329796263      2.21274296008961     -0.25974565032857
  H   2.13970588802969     -1.99739664819827      0.25989806770729
