18
Coordinates from ORCA-job sli_prashanth_inp/doublemontecarlogen3D565
  O   9.19267625838298      1.42770676178151      2.73064058988311
  C   8.41270943618154      2.35941528912647      2.15281910102954
  O   8.53319967310641      2.66857423940957      0.99549799657044
  C   7.30338480299508      2.98570774467107      3.01020733928867
  S   7.52268761190518      2.93031696770029      4.83789639037553
  C   8.76400931454027      4.17297580213220      5.11801453350089
  C   8.76643810678963      5.44483536459142      4.61386767486631
  F   7.79679170983859      5.88303242409268      3.78503489889982
  C   9.81506487013291      6.32627646999154      4.99097235676847
  N   10.77305332703674      6.02790396016066      5.82491320838242
  C   10.80353645864824      4.76052529120821      6.40335764889565
  O   11.62728905342732      4.37645166337621      7.20838261446142
  N   9.77672372446995      3.86231977216214      5.98043675001468
  H   8.95122543502344      1.33228440624563      3.66838713225254
  H   6.37761498315910      2.42582236105096      2.83741478544082
  H   7.14211385456143      4.01070005985021      2.68223969640483
  H   9.80967184953776      7.32794096634166      4.55732694184093
  H   9.84005953026320      2.93190045610746      6.37667034112381
