19
Coordinates from ORCA-job sli_prashanth_inp/doublemontecarlogen3D506
  C   0.48751511778406      1.21258048296889     -0.54211228820635
  C   1.72347192390580      0.64452577281187     -0.82470487237244
  C   1.92426896877482     -0.70511064881999     -0.53876271956722
  C   0.92483867521549     -1.49592570830259      0.01706751725420
  C   -0.30809423683507     -0.91072312444627      0.29328548757473
  C   -0.55417169606188      0.44952907425947      0.02408699808923
  C   -1.87004813728652      0.99830676262342      0.34370376813675
  C   -2.30511105956869      2.26414712808211      0.19899180874262
  C   -3.69493761954544      2.61057109061904      0.59233980331441
  O   -4.50182539863811      1.82241649650185      1.03273030132781
  O   -4.04799980414026      3.91814484170470      0.43181399586327
  F   3.12212983850100     -1.25488189681642     -0.81081221138838
  H   0.33089428568109      2.26287377507466     -0.76726059079970
  H   2.53086912298576      1.22290846786744     -1.26087293691069
  H   1.11957384663085     -2.54269102508468      0.22401199293416
  H   -1.09935722994937     -1.51532329076616      0.72801724596418
  H   -2.59557764715466      0.29732952344579      0.75483353762985
  H   -1.66293753043775      3.04811168899273     -0.19828431231916
  H   -3.30541141986113      4.42672058928413      0.07765747473274
