17
Coordinates from ORCA-job raina_inp/doublemontecarlogen3D227
  C   -0.28171005071617     -1.86923346993475     -0.00198268125583
  C   1.01748165574112     -1.37480538470483      0.02696756031246
  C   1.19923058473365      0.01864460487554      0.00522049903592
  C   0.10299168397423      0.87697010835579     -0.03530850774651
  C   -1.19967816279385      0.37310033015990     -0.08043636465106
  C   -1.38325777476495     -1.01785007252180     -0.07014983244079
  N   -2.70526668199775     -1.66893898525437     -0.13632581657461
  O   -3.61024860229432     -1.07892627987777     -0.71521706120346
  O   -2.79439994641058     -2.78386175718376      0.37675647098064
  Cl  -2.49495715020678      1.52878296724586     -0.07860889863004
  Cl  2.78648603991972      0.73718628330420      0.03705235063175
  C   2.17669329216818     -2.34721689768194      0.08511497877109
  F   2.97771879000087     -2.22554230843442     -0.99076049295826
  F   2.93002799105582     -2.15071107012792      1.18380107153754
  F   1.73666691394661     -3.62169826038746      0.11918211730132
  H   -0.45941135817982     -2.93603773329414      0.02809943691674
  H   0.25824277582401      1.94877792546188     -0.02954483002690
