14
Coordinates from ORCA-job ewa_inp/doublemontecarlogen3D141
  C   -0.63780869231253      1.25123497551675      0.15058328957443
  C   -1.35104864949166      0.04913438334796      0.07086585991126
  C   -0.59519758222465     -1.13356227679033     -0.07421507186821
  N   0.72638125803965     -1.15693485296976     -0.13099000033734
  C   1.40244751925340     -0.00806447563555     -0.03524465088034
  C   0.74889268756056      1.21089745279011      0.10156085809835
  F   1.45748758388107      2.34726944415887      0.18490022791610
  Cl  -1.38927531874026     -2.68249872799724     -0.24642342922210
  C   -2.85201621909723      0.07680910148858      0.21441670199989
  O   -3.47468084285248     -0.64366878171211      0.94817711637245
  O   -3.47737952036777      1.04183529412484     -0.51243018121448
  H   -1.14548214288517      2.20218216177210      0.28097857294473
  H   2.48802529354568     -0.05372841991039     -0.06936719651297
  H   -2.86733537430860      1.42660472181618     -1.15828209678177
