20
Coordinates from ORCA-job raina_inp/doublemontecarlogen3D615
  C   -1.87416152379540      0.00129692244436      0.01132494929912
  C   -1.15788173382786      1.19821182148842     -0.00595999840224
  C   0.23427147134996      1.20509098304577     -0.07567092239278
  C   0.95004162920869     -0.00276376459869     -0.13168897207098
  C   0.22859139281170     -1.20968525087281     -0.11544661544442
  C   -1.16250583219555     -1.19866745105723     -0.04444450516805
  C   -1.89798878798109     -2.51199976246601      0.03507444483177
  F   -1.32481540146349     -3.45706110025355     -0.74407674754636
  F   -1.90088795950657     -3.00035453065128      1.29758862997772
  F   -3.18683648956842     -2.39411316198207     -0.34741779929146
  N   2.33201740038565     -0.00424622096691     -0.25902454416534
  C   -1.87853055469548      2.51785945989716      0.09932929426401
  F   -1.38167995472335      3.42818749673336     -0.76941656501681
  F   -3.19940905681726      2.39863566729032     -0.14669597402415
  F   -1.74781743969009      3.05328313395762      1.33606176265213
  H   -2.95506657042167      0.00282271848557      0.05668958462356
  H   0.76798130266844      2.15078613811560     -0.10116399758168
  H   0.75769091389503     -2.15628562424197     -0.17322799413104
  H   2.81106695099045      0.83293025643469      0.03964642212404
  H   2.80759024337634     -0.85132773080234      0.01627954746296
