18
Coordinates from ORCA-job sd_inp/doublemontecarlogen3D382
  C   1.13248880864754     -0.27178832293050      0.69444264227561
  C   -0.16300222115823     -0.79200244474782      0.56813594025534
  C   -1.17008082457322     -0.00091662025548     -0.00859829438912
  C   -0.86085103336919      1.28687947694259     -0.44021376927058
  C   0.41342146678786      1.82840071116805     -0.32360545486683
  C   1.39028670552918      1.02144416812653      0.25224172752225
  F   2.63358283892240      1.51557799413283      0.38276176034972
  F   -1.83496068115243      2.03612728894479     -0.98546030680239
  C   -0.46517894086600     -2.20729617960787      1.00462960558837
  C   -0.34551565306066     -3.28956494684482     -0.08659914132891
  O   -0.17090803709801     -4.45097340874651      0.18157864141848
  O   -0.49400645970860     -2.88408210003787     -1.36795593285491
  H   1.93572343214156     -0.85473763944261      1.13237408903374
  H   -2.19157185144399     -0.35762846222919     -0.09877429127664
  H   0.63584779338145      2.83368827298930     -0.66003275514459
  H   -1.49214180083906     -2.27490652909530      1.38493955203244
  H   0.19077709235701     -2.52364887461913      1.81860456854391
  H   -0.58294063449760     -1.91780238374699     -1.40398858108589
