13
Coordinates from ORCA-job sli_prashanth_inp/doublemontecarlogen3D566
  C   -0.74568326877094      1.07672111293888      0.03288376380078
  N   -1.38680637917512     -0.07448626823758      0.06757168369575
  C   -0.65687497218348     -1.24464368595968      0.06194498901435
  O   -1.10886655802717     -2.37508239183671      0.09901368529609
  N   0.77526718264267     -1.09997825274713      0.00704948254379
  C   1.43725214643094      0.08601901386658     -0.02729264479989
  C   0.64584881780041      1.21942574258743     -0.01407725982938
  F   1.25030542172609      2.43707528486858     -0.06624802305572
  N   2.80302464659779      0.12170986159624     -0.02472328972923
  H   -1.34952487364871      1.98580453503662      0.03570978320588
  H   1.28140162562642     -1.97650519368694      0.04503131551236
  H   3.30561213184206     -0.66637678494116     -0.40652298516231
  H   3.20846407913903      1.02608702651487     -0.21921050049247
