14
Coordinates from ORCA-job sli_prashanth_inp/doublemontecarlogen3D554
  C   -0.78574589808079      1.18222884019729     -0.02005440069392
  C   -1.44574832586742     -0.05464120255098     -0.01711386351691
  C   -0.64249602516340     -1.20615770829738     -0.01998209519780
  C   0.74036797294829     -1.16158622849699     -0.02344705922322
  C   1.36782223726123      0.08130687756574     -0.02483641413749
  C   0.60889602410604      1.25026273998120     -0.02629708166368
  Cl  1.41210869100601      2.80236881075597     -0.03473522722576
  F   2.71035354847646      0.13959608031969     -0.02996068518035
  F   -1.27210140502824     -2.40742473247400     -0.03396221300431
  N   -2.83195055276145     -0.17200882068032      0.04815929250854
  H   -1.36041351774252      2.10257326151427     -0.01142530577955
  H   1.32435920584247     -2.07427644552429     -0.02981503406564
  H   -3.35013415793863      0.59416221841649     -0.35848919361620
  H   -3.18302779705805     -1.07557369072670     -0.23803071920370
