20
Coordinates from ORCA-job sd_inp/doublemontecarlogen3D407
  C   1.34914279365599     -0.68187120191273      0.05282772235727
  C   0.32235597697843     -1.61959877300431     -0.05426480346823
  C   -1.00641253522208     -1.19221847045708     -0.07429881848480
  C   -1.30032084335810      0.17211613741620      0.02517340070239
  C   -0.27018596756927      1.10189470746798      0.13709795566897
  C   1.06876370502087      0.68610279157466      0.15037913262487
  C   2.19519269980337      1.69523120264705      0.28480206764400
  N   1.85960817904952      2.97164527698477     -0.35226470729033
  C   -2.13316311300603     -2.18144694160489     -0.18634816650875
  F   -3.08243491509018     -1.75484848322378     -1.05256071746251
  F   -1.70981348636679     -3.39205734568208     -0.61361904779438
  F   -2.75663993768857     -2.37694247689512      1.00003287255315
  H   2.38280772284258     -1.01986829215073      0.05025727134938
  H   0.55171947162681     -2.67614695736893     -0.14081174487716
  H   -2.33369199847829      0.50458440417880      0.00261122530843
  H   -0.48772347236218      2.16310424834472      0.19729829061443
  H   3.12609568499110      1.23051204404711     -0.08433254044729
  H   2.36145473791303      1.89976252952882      1.35192607140145
  H   1.81964469325091      2.85509448009646     -1.36233373956349
  H   2.58509060400887      3.65757112001307     -0.16231172432741
