17
Coordinates from ORCA-job leia_inp/doublemontecarlogen3D208
  C   1.81450260184065     -0.20720116483820      0.24723726696746
  C   1.45461960847346      1.11798646708036      0.00735803521106
  C   0.11891099529299      1.39121574366883     -0.28704811027235
  N   -0.83203998509363      0.44729937553154     -0.34763401494116
  C   -0.47607036982563     -0.81474683631577     -0.11461261613335
  C   0.83460726019029     -1.19671241674156      0.18647440074928
  C   -1.55469536230713     -1.87579552736958     -0.22825234020981
  F   -1.32579250421600     -2.66142426270329     -1.30461666150973
  F   -1.54145244956675     -2.68185889913797      0.85777424175416
  F   -2.77923532682984     -1.35186442997176     -0.34671098867942
  C   -0.34092162200934      2.80530726051676     -0.55443171399866
  O   0.41023898196771      3.75287671830152     -0.51469087895773
  O   -1.64515780555203      2.90649544234655     -0.84633154981901
  H   2.84253301335203     -0.46755165791731      0.48025582671713
  H   2.16411911092791      1.93682181085531      0.04078043388085
  H   1.07084844425584     -2.23961050441498      0.36762220099160
  H   -2.01643459090053      2.00091288110952     -0.81024353175031
