14
Coordinates from ORCA-job srijon_inp/doublemontecarlogen3D463
  C   -1.91832661532934      1.37132605439913      0.19596580704766
  C   -0.53212440310883      1.50526034103330      0.18584660223229
  C   0.27967484933249      0.38432136624629     -0.00495218585059
  C   -0.30707049033607     -0.87482238323899     -0.18567233536915
  C   -1.68511654462532     -1.02997363821820     -0.17899162940975
  C   -2.46937938727430      0.10484588122070      0.01328862110645
  N   -3.93428665192808     -0.04845052771686      0.02266108312913
  O   -4.60842078831204      0.96562819962474      0.19510549454052
  O   -4.38783837863012     -1.17972460408510     -0.14229312443130
  F   0.46979334811151     -1.94830170574489     -0.36825631639983
  Cl  2.01121223167199      0.53349957615471     -0.02120843994097
  H   -2.56984145218172      2.22343290905694      0.34137072575680
  H   -0.07029595098235      2.47628176171061      0.32517564681395
  H   -2.13519976640781     -2.00433323044238     -0.31902994922522
