19
Coordinates from ORCA-job sd_inp/doublemontecarlogen3D393
  C   1.33173653225727     -0.10142774348188     -0.98030227912504
  C   0.64082666226546     -1.16117122829941     -0.39978770781652
  C   -0.49077101161572     -0.88173331846102      0.37213657811224
  C   -0.93219829955886      0.43000358831538      0.55538088508810
  C   -0.22372538929966      1.47716858475932     -0.02365021591470
  C   0.92471114727922      1.22497514110399     -0.78901561548387
  C   1.72442450330425      2.30283288758944     -1.45520246902617
  O   2.45361371193879      2.10005255132204     -2.39736207407142
  O   1.59943619876368      3.55999844775752     -0.94949697147331
  O   -1.27431590353742     -1.83693117137981      1.01046065083221
  C   -0.98336389545136     -3.16352680475431      0.92759345976107
  F   -1.88916541384316     -3.81158296231122      1.65406089454163
  F   -1.03719305767143     -3.61999207145019     -0.33709276874246
  F   0.24099606412588     -3.45051130301609      1.40839601260381
  H   2.20601313568946     -0.28880904323144     -1.59442732703667
  H   0.98110974780037     -2.17664256274359     -0.55220558541955
  H   -1.82783905971669      0.60691281788839      1.14079026216759
  H   -0.60339038600325      2.48865273569438      0.09824370958445
  H   1.13437471327317      3.53726145469850     -0.10173943858139
