18
Coordinates from ORCA-job sd_inp/doublemontecarlogen3D392
  C   1.40151729744400     -1.88215511961900     -1.24827028579644
  C   2.10338025983363     -1.23959377011409     -0.22829964734324
  C   2.01105090311228      0.14550287031668     -0.10711621547775
  C   1.21765706190131      0.87857744234454     -0.98719130478144
  C   0.51469495826378      0.23025084366588     -1.99667925524035
  C   0.59665313612725     -1.16541315039900     -2.14823101309357
  N   -0.14968183857232     -1.82512212822151     -3.12907342591276
  O   2.65843197258762      0.91541798485223      0.87336724662493
  C   3.61426246901384      0.38353495772674      1.66310127560615
  F   4.11861120656990      1.37241187699769      2.40316258157147
  F   3.13323448210622     -0.56483109355404      2.49856479446649
  F   4.62037577392962     -0.18369632733619      0.96607157267333
  H   1.47610294874778     -2.96283922213979     -1.33981020105774
  H   2.70906308219905     -1.82450747251115      0.45192051378587
  H   1.16066414623210      1.95610984825285     -0.87234460363701
  H   -0.10622586520703      0.81052858538420     -2.67454558781113
  H   -0.39772836978752     -1.25958525895277     -3.92948773430777
  H   0.21338637549848     -2.72627086669327     -3.40841871026904
