19
Coordinates from ORCA-job sli_prashanth_inp/doublemontecarlogen3D507
  C   -0.11939738191250      0.72720096215598     -0.59193184465462
  C   1.00046927559447      1.53465024691039     -0.40846976471481
  C   1.62625709291826      1.52920721238091      0.83477205244008
  C   1.16422117980348      0.74524372390303      1.88467310887337
  C   0.03969782527884     -0.05766021917490      1.68784384398436
  C   -0.61604638765636     -0.07562785505419      0.44958170760523
  C   -1.87162778523056     -0.88432803639796      0.16806395129068
  C   -2.35116820382379     -1.80112433475265      1.31515650229934
  O   -1.62300509349779     -2.56162852813791      1.90832007405946
  O   -3.66778019639556     -1.71308970165992      1.55497077406020
  O   -2.95988640962541     -0.03356826993006     -0.25638522124326
  F   2.71400603152224      2.30195021232748      1.02205114407311
  H   -0.61948462829143      0.72058682045613     -1.55674963540890
  H   1.39319451348311      2.15540472152220     -1.20669821445113
  H   1.68385225519032      0.76406081751555      2.83666093724400
  H   -0.30682702373807     -0.69420297341586      2.49291786192359
  H   -1.68555400958140     -1.55447755420112     -0.68139855700490
  H   -4.00932091904324     -1.04368432542610      0.92654143761584
  H   -2.82024013499459      0.83363708097899      0.15142984200834
