18
Coordinates from ORCA-job sli_prashanth_inp/doublemontecarlogen3D513
  C   -0.03917940256153      0.39244899737977     -0.23931135505885
  C   1.05301108087205     -0.10360988259779     -0.95478323258098
  C   2.19703684740521     -0.46706103363020     -0.25469904199995
  C   2.27733243104075     -0.35534112496386      1.13074846019601
  C   1.17748968804042      0.13979315875681      1.82774313198980
  C   0.00373970185536      0.52482214146933      1.15771308488964
  C   -1.18784435371953      1.04638550644411      1.93106527932965
  C   -2.09910138735980     -0.02061048116750      2.56336469041934
  O   -2.81269483651153      0.21204235758458      3.50629480949141
  O   -2.09601974732845     -1.23975738437288      1.97508816485384
  F   3.26039552225461     -0.93782366184605     -0.93454167954237
  H   -0.93226768157321      0.69609942592053     -0.78040365917667
  H   1.03000356523526     -0.20020896281085     -2.03496972308928
  H   3.18888514552843     -0.65023211053865      1.63958958305666
  H   1.23166523724549      0.23345557589907      2.90932201089725
  H   -1.83198777148118      1.64590130330551      1.27560148820130
  H   -0.88100019472339      1.70527265741154      2.74743356263503
  H   -1.42911384421894     -1.25738648224346      1.26970442548816
