20
Coordinates from ORCA-job test_3_sl_inp/doublemontecarlogen3D279
  C   1.57219765932558      0.06472478491601     -0.23371804687794
  C   0.76919851055952     -1.07471969568536     -0.28349017908572
  C   -0.61282524112758     -0.99127589311018     -0.06735245051592
  C   -1.17485935203976      0.25760046073786      0.21400157279717
  C   -0.36845640539533      1.39792730747199      0.27381742410247
  C   1.00682592022056      1.30912124225501      0.04544137179593
  C   -1.00651386386551      2.73325416663881      0.55183387307768
  F   -1.56877996165532      3.26548026775610     -0.55941127384912
  F   -1.99115343146004      2.63539842563824      1.47400600808156
  F   -0.11192920911646      3.63889783916157      1.01036483474214
  C   -1.48085107654822     -2.23500507527160     -0.15972342115820
  N   -2.67907287597027     -2.13196913108765      0.67513889539721
  H   2.64256002718379     -0.01782919386309     -0.39926055578636
  H   1.22129297542625     -2.04326455785594     -0.48639953507432
  H   -2.24097424123619      0.32170657080406      0.40274754344745
  H   1.62491033688352      2.19846946789388      0.10113562360555
  H   -0.85001397754287     -3.11594692486490      0.05375200661842
  H   -1.81900801293963     -2.35199457697594     -1.19895699190386
  H   -2.42532778960981     -2.17089780933897      1.65954341311813
  H   -3.29840999109222     -2.91739767521993      0.49673988746773
