17
Coordinates from ORCA-job ewa_inp/doublemontecarlogen3D144
  C   1.64734308167509      1.13059683518758      0.04676392599809
  C   0.24924085555665      1.08849070041676     -0.07104847881764
  C   -0.30067434784282     -0.19790600540211     -0.22330617827037
  N   0.39495675452816     -1.32015225509406     -0.26392498706801
  C   1.72128976077486     -1.25036554839823     -0.14864454257195
  C   2.39641929942913     -0.03738233801416      0.01168546075094
  C   3.89652141363606     -0.03197861035172      0.16340871283894
  F   4.48915124655568     -0.69838280011634     -0.85063057633041
  F   4.39490499487845      1.21755665777345      0.18584692690998
  F   4.26568377714833     -0.64492933128904      1.30875372357837
  Cl  -2.04833140069359     -0.45950344489636     -0.38772182853532
  C   -0.43009415616195      2.44938044549139     -0.01468999037711
  O   0.23974311966858      3.45258945451376      0.08351833315783
  O   -1.76576629809051      2.52600982269134     -0.06744625170098
  H   2.11260273988045      2.10255661384882      0.16305414358487
  H   2.25993253357745     -2.19402709275251     -0.18834521932214
  H   -2.17723337452006      1.64831689639144     -0.15148317382509
