27
Coordinates from ORCA-job raina_inp/doublemontecarlogen3D583
  N   -0.62813468336443      1.50124556617085      0.67910716530036
  C   -0.02369674973020      1.59905098374286     -0.66102381119734
  C   1.28538301037521      2.41576962019201     -0.74520252803343
  C   1.09439109132582      3.86531704622367     -0.40935814091647
  C   1.46610377983281      4.50634977671106      0.74572910306902
  N   1.07020085124637      5.83510109328828      0.70185116886813
  C   0.43453241222676      6.07858736845843     -0.49572867514312
  C   -0.13178978525157      7.25741515213013     -0.99655973212304
  C   -0.70272218488905      7.17058324348873     -2.25518428898529
  F   -1.26919487103948      8.27829259575256     -2.78499529718905
  C   -0.72492242748159      5.99111160006238     -3.01654436620687
  C   -0.15760908148677      4.83187312762227     -2.50367665293223
  C   0.42892304198251      4.85660914271015     -1.22543667296446
  C   0.16775704466325      0.17620785196494     -1.23196631564359
  O   -0.53840280089400     -0.76030601309363     -0.58198611303270
  O   0.86220444872330     -0.06191022237743     -2.19357631903935
  H   -1.17978882516423      2.32810303015077      0.88705045184107
  H   0.09969552480766      1.45272292013721      1.39013710957775
  H   -0.76991784820016      2.07281842159381     -1.31177950576778
  H   1.68539690259362      2.29171530352311     -1.75690981156475
  H   2.02360361889893      1.96514475404598     -0.06819237436687
  H   2.00137237148468      4.12421109446875      1.60444736028476
  H   1.26544624569299      6.52364660252888      1.40997702643116
  H   -0.13556712818828      8.19557767895244     -0.45201285171410
  H   -1.18529974785408      6.01362686792915     -3.99818507675083
  H   -0.16159041309027      3.92038246395329     -3.09479625956055
  H   -0.97845379721981     -0.27131707033074      0.15445540775960
