19
Coordinates from ORCA-job sli_prashanth_inp/doublemontecarlogen3D559
  C   6.46330542332616     -1.77468654180333     -1.82525303918977
  O   5.42766633688620     -2.63450843365454     -2.29477970579798
  C   4.38850210231575     -2.96970007792836     -1.45620692012836
  C   3.41660814090261     -3.86431101397163     -1.96109139419415
  C   2.34746409789184     -4.22697939340814     -1.13413256532854
  C   2.25180735799714     -3.71463595136167      0.15008780835411
  C   3.20143404162418     -2.83406753545041      0.65129358229214
  C   4.27505019377551     -2.46147473957435     -0.15833891640449
  F   1.21564893918448     -4.07775593951791      0.93338036683657
  C   3.41847654799129     -4.48677400756941     -3.34024951562516
  O   2.55244143563883     -5.26121887782589     -3.68440360270998
  O   4.41397470479585     -4.15269978943366     -4.18055520720917
  H   6.96836210540637     -2.20665987641388     -0.95382466010697
  H   6.06936485081109     -0.78398519368669     -1.57158778247932
  H   7.17158719145100     -1.68425061153335     -2.64927363705285
  H   1.60340056292190     -4.91398438300851     -1.52047981104405
  H   3.10091853962198     -2.44691813751337      1.65963896065900
  H   5.01489286682486     -1.77486074439229      0.23393695673358
  H   5.02194456063293     -3.52997875195261     -3.73931091760461
