9
Coordinates from ORCA-job leia_inp/doublemontecarlogen3D214
  C   1.17783557308706      0.14981163762888      0.32254085799839
  C   0.47152030920600     -0.82869347485549      1.24818957050993
  F   -0.09020054186958     -1.85532318034888      0.58889290990491
  F   1.35883009033667     -1.35058418539550      2.13468582048946
  F   -0.49570541362256     -0.20319963106474      1.95073090100473
  O   2.25073025518540     -0.45319801858659     -0.35763999361668
  H   1.48053620045408      1.01277779557424      0.93413896038669
  H   0.46148783788974      0.49478440400206     -0.42731847566685
  H   2.87706568933317     -0.77367534695396      0.30594944898942
