18
Coordinates from ORCA-job srijon_inp/doublemontecarlogen3D457
  C   1.03541984614347      1.25192709548069      0.17396825266738
  C   -0.28964935410560      1.14314979914837      0.58845614471713
  C   -0.95832450364315     -0.07608985902472      0.47233827815410
  C   -0.29783045715485     -1.20619882677065     -0.04273031571434
  C   1.03151375500757     -1.07992657489522     -0.44157886160234
  C   1.70500813671723      0.14358944704934     -0.35710660166573
  C   3.13615228338716      0.17506394379277     -0.81090199314544
  O   3.81319134594054     -0.81953720181399     -0.91371303540644
  O   3.65945946786948      1.39328213966702     -1.10800531358922
  C   -0.98400219095673     -2.54991827171823     -0.18062322943865
  F   -0.14154915196220     -3.47787634307668     -0.68020162082449
  F   -1.42696860435374     -3.00875947617911      1.00647789854850
  F   -2.04266138370979     -2.48067286460877     -1.01275334564090
  Cl  -2.62509057550216     -0.14195639242382      0.99266139226787
  H   1.54251868033776      2.20445689172850      0.30664159470697
  H   -0.81014635861887      1.99681653569144      1.00760782293697
  H   1.56588343568658     -1.93905357155770     -0.82794032482768
  H   2.96275562891730      2.06233352951076     -1.15683674214369
