25
Coordinates from ORCA-job leia_inp/doublemontecarlogen3D205
  C   1.00960998457197      0.80094773246370      0.62950499443687
  C   -0.25951030639127      0.54283998073472      0.11730985324760
  C   -1.31346089873524      0.40792560502448      1.02060019595832
  N   -1.19144422583687      0.53011864969663      2.33990039839650
  C   0.02079820430534      0.78252806018225      2.83322657139874
  C   1.14619047303731      0.91742387024698      2.01205049899093
  Cl  2.70539765038719      1.23353392493488      2.72767723806294
  N   -2.64288744893522      0.12581784558969      0.52640384098399
  S   -3.74728405027264      1.44643447100914      0.38887681787721
  O   -2.92558192497899      2.61973855017390      0.13373257803743
  O   -4.84148673906395      1.03609154781534     -0.47198874190064
  C   -4.43309463678997      1.62624709501046      2.15169917657481
  F   -5.66790444562368      2.10584852960080      2.04178509330209
  F   -4.45276584086044      0.45187119993374      2.76631682770556
  F   -3.67028220318830      2.48129573982763      2.82098639994968
  S   -3.14534245327917     -1.52798594772402      0.44554749763448
  O   -2.09754094598005     -2.30217275441442      1.09204665054256
  O   -4.55431149813021     -1.63340371506549      0.77752829537606
  C   -2.97672204895435     -1.87029964939248     -1.39532758740814
  F   -1.70676036463449     -1.66196535688165     -1.76107036348518
  F   -3.29339264166670     -3.14658179565274     -1.59410281280369
  F   -3.77824637763555     -1.08358977450532     -2.09825421067796
  H   1.86841817790596      0.91243723153903     -0.02304189744178
  H   -0.43284726887457      0.44015211243844     -0.94677568793609
  H   0.11157182962407      0.88083684741427      3.91157837317762
