20
Coordinates from ORCA-job sli_prashanth_inp/doublemontecarlogen3D560
  B   0.07005592050646      0.68920202832552     -0.02764443220110
  C   -0.43056564645461     -0.76716447179350     -0.36592369187810
  C   -0.32911932082308     -1.35072271141536     -1.64948040701649
  C   -0.79535760320523     -2.64527915927606     -1.90023247102142
  C   -1.37658851061800     -3.38617237949263     -0.86746470021626
  C   -1.47979645354601     -2.81889335282372      0.39438623370089
  C   -1.01740896567602     -1.53458818451391      0.65045058337419
  F   -2.04534556516654     -3.53132550698853      1.39541851543771
  O   0.25097997076426     -0.57016410759895     -2.62937584965821
  C   0.37510290207439     -1.08678611107350     -3.94640904113616
  O   -0.07036059074320      1.11527630175372      1.26710573565008
  O   0.62904197790136      1.53416132467626     -0.94419268579554
  H   -0.71819849519385     -3.09002634902814     -2.88512414679858
  H   -1.74603929516163     -4.39160051608272     -1.04076227695154
  H   -1.11399615087538     -1.12197294099206      1.64901737424187
  H   0.85375229342871     -0.30325763295595     -4.53601019921533
  H   -0.60603867846679     -1.31659948634481     -4.38024086843560
  H   1.00168067650752     -1.98706089706691     -3.96657693934851
  H   0.26202429966336      2.01615071780281      1.36712016647295
  H   0.66781723508431      1.09715343488849     -1.80873089920480
