18
Coordinates from ORCA-job test_2_sl_inp/doublemontecarlogen3D270
  C   1.70875827204220      0.21982493464483      0.18012627008183
  C   0.89200311762987     -0.90809966486521      0.07310154066772
  C   -0.50088699144615     -0.77027576773659      0.02291118367655
  C   -1.07155979792211      0.50746013186296      0.10242458086310
  C   -0.25416799425330      1.62904029412217      0.19619148042596
  C   1.13938284434440      1.48918318145595      0.23351139829964
  C   -0.84320692002966      3.01480681744856      0.27369881727937
  F   -0.33978969626532      3.81216879191395     -0.69660396784492
  F   -2.18387211123506      3.01031886637810      0.14368803751243
  F   -0.54900694671938      3.60617812034747      1.45370816355380
  C   -1.43949203254052     -1.93948856352849     -0.07095894797992
  O   -2.59540602603391     -1.88436242876605      0.27455412619096
  O   -0.92986083015364     -3.09622231273692     -0.57049560147395
  H   2.78729806834921      0.10595138973526      0.22714238988349
  H   1.35385255523332     -1.89263727453362      0.06820170555675
  H   -2.15098305455594      0.60076872986671      0.08687594705437
  H   1.76946757383511      2.36999462254817      0.30858221784126
  H   -0.05710003027912     -2.94214986815724     -0.95805934158844
