18
Coordinates from ORCA-job ewa_inp/doublemontecarlogen3D150
  C   -2.04823920779452     -0.22426671399333      0.87195744695747
  C   -1.58309166556975      1.03800690503016      0.52168896534118
  C   -0.34405642675542      1.20738747692546     -0.11783757985349
  C   0.39692014432446      0.05508455353334     -0.38114105301646
  C   -0.04208521929179     -1.22462007414568     -0.04248751608536
  C   -1.27924764941812     -1.35564893578333      0.58996214101959
  C   0.81626282580710     -2.42435031468327     -0.36168102655148
  F   1.05737153076143     -2.52124749522041     -1.68529385414003
  F   2.01174566043836     -2.35682049835421      0.25941056264901
  F   0.22018899993051     -3.57070102239657      0.02751493008725
  F   1.60879316705800      0.15627843056677     -0.99784481850093
  C   0.06515453796872      2.62204869286680     -0.45803070594243
  O   -0.63929544371043      3.56255046528927     -0.17259695313264
  O   1.23666890086965      2.80973380954370     -1.09426399287041
  H   -3.00917513100661     -0.33257176540672      1.36399371928758
  H   -2.15688947212933      1.93530695636025      0.72713722754726
  H   -1.63024052684474     -2.34613558790062      0.85594727897081
  H   1.68906497536248      1.96577511776838     -1.24761477176692
