29
Coordinates from ORCA-job sli_testing_inp/doublemontecarlogen3D603
  C   1.38428443436331      0.07973842263999      0.75109869608634
  C   2.65396048051913      0.05499026415239     -0.10048484589995
  C   2.57460664124326      1.10524890394639     -1.21094612223314
  O   3.77908632526429      1.16047906694646     -1.96915038896038
  C   4.19181893340963     -0.05610244296350     -2.42932281260351
  C   5.07728512807142     -0.08331328441943     -3.50111997573215
  F   5.48803307228074      1.06740407987408     -4.04579341469667
  C   5.53650495910348     -1.30326339429217     -4.01365192947160
  F   6.39236037297095     -1.26611161327117     -5.04620923102811
  C   5.10829181002646     -2.50018804607446     -3.47966424074715
  C   4.22380494168276     -2.49712273241694     -2.39102661545549
  C   3.79477956844177     -3.80031619084353     -1.81468228470883
  O   4.14709277475897     -4.86941277963009     -2.30332859300671
  C   2.90854865421216     -3.67227089331834     -0.64928376818210
  C   2.53225949681612     -2.43857388183514     -0.18732828973819
  N   2.91319452018889     -1.25582223276848     -0.74500616621799
  C   3.77059235929094     -1.27484745457894     -1.85429250167821
  C   2.50412280587894     -4.88387354915967      0.13114611439928
  O   1.20365363568275     -4.88350555042311      0.57298449357161
  O   3.24166678164645     -5.78696139869107      0.42471227683456
  H   1.21176727530223      1.10311518978519      1.09702886233764
  H   1.46737215097758     -0.54500123262221      1.64335449366440
  H   0.50851742050784     -0.23861075900124      0.17649925269780
  H   3.52028493828137      0.30053116636324      0.52946279576521
  H   2.44757936720475      2.09992104848605     -0.77935809774655
  H   1.72272397848799      0.88924662078473     -1.87150909998431
  H   5.44475328695343     -3.45141618013489     -3.87576080265718
  H   1.90975453770044     -2.35552782107099      0.69477182636018
  H   0.69347934873194     -4.24545332546314      0.05463036903126
