15
Coordinates from ORCA-job test_6_sl_inp/doublemontecarlogen3D351
  C   -2.28333799804168     -0.08620050538380     -0.01161809036508
  C   -0.79815970719286      0.09017185189887      0.00003940795754
  C   -0.00042697058826      1.22119532093606      0.00996802650771
  C   1.32316995776425      0.72762958227459      0.01461435876801
  N   1.36863682119504     -0.60250362377974      0.00962716367833
  N   0.07170356611103     -0.96202089151180      0.00099746872043
  C   2.59207013207406      1.52131668324692      0.02312039207101
  F   3.35607258015018      1.27103529488215     -1.06081967232419
  F   2.31327037668958      2.84608401206504      0.02891818311120
  F   3.34921956730452      1.26012858261304      1.10932811693007
  H   -2.77405962476375      0.88923705511645      0.00250094529493
  H   -2.63268581052420     -0.64893561170437      0.86197804524216
  H   -2.62232825533974     -0.61799126254852     -0.90845861848562
  H   -0.32323138357613      2.25076373890378      0.01247476290027
  H   -0.15589325126204     -1.94530022700867     -0.00404049000677
