15
Coordinates from ORCA-job ewa_inp/doublemontecarlogen3D140
  C   -1.19599873747534      1.21433569559436      0.04378492512110
  C   0.17847080534439      1.24613460922647     -0.18337872165009
  C   0.91637917245193      0.06157213128407     -0.21993793586028
  C   0.28262354776220     -1.17738852736471     -0.02916007147519
  C   -1.09664767520586     -1.20636617831034      0.19694563681431
  C   -1.81205295411243     -0.01651148837868      0.23080906288957
  F   -3.13846066150887     -0.06182851519790      0.45270047391625
  C   1.04578919368538     -2.48568878722416     -0.05565538546350
  F   1.65657868104593     -2.68430627154464     -1.24019895345397
  F   1.99223076342869     -2.53052797838363      0.90278229304470
  F   0.22283795448226     -3.53832759838878      0.14886371933951
  Cl  2.64074541530221      0.18202944149284     -0.50801055831940
  H   -1.78409443549855      2.12504433330770      0.07693780081646
  H   0.68669038063155      2.19218438655393     -0.33257815202509
  H   -1.61007145033351     -2.14766525266651      0.34615586630562
