20
Coordinates from ORCA-job sd_inp/doublemontecarlogen3D385
  C   3.39934885794050      1.41919245606302     -0.60296588999449
  C   2.86335105425418      0.59217622089136      0.55274327337921
  O   1.79105760725783      0.01542080784551      0.46369450966722
  C   3.67698831585583      0.49084165533537      1.81331009632125
  C   3.16290528235672     -0.28341560399109      2.86428888045335
  C   3.87782541768049     -0.41857826681412      4.05019567671846
  C   5.11559682531586      0.21894089124701      4.20537335341670
  C   5.63114398204510      0.98984768422070      3.16594479759429
  C   4.91589844294523      1.12650184522525      1.97460850163224
  C   3.30761202802662     -1.21001988403290      5.19918490211041
  F   2.38003779912879     -2.09990963512823      4.79107929689883
  F   4.27145140863722     -1.89502391572562      5.85687497215112
  F   2.71640758075600     -0.40231080179011      6.10992381933643
  H   2.67567159140574      1.38794785496664     -1.41807597746917
  H   4.35904680370426      1.02435294918794     -0.95589926521418
  H   3.56414348700132      2.45996583004295     -0.30225924218717
  H   2.20637326593086     -0.77423365922765      2.72503622089735
  H   5.67045084842141      0.10136041237009      5.13067325100189
  H   6.59200024027042      1.48195944281838      3.28190751706024
  H   5.33121916106557      1.72838371649548      1.17264130622600
