17
Coordinates from ORCA-job test_5_sl_inp/doublemontecarlogen3D327
  C   -1.67883582219384     -0.45431452908390     -0.29544387720146
  C   -0.92606750205479      0.70492960908967     -0.51763161836467
  C   0.47260690330558      0.65565882413505     -0.44628083004197
  C   1.09819175335350     -0.55761310457519     -0.17213825713980
  C   0.38129521344278     -1.72810373625736      0.03332049919863
  C   -1.00818741035055     -1.64251089020254     -0.03511857619739
  N   -1.79501686717794     -2.87565069239944      0.18592921087079
  O   -1.16977635099550     -3.90518520692188      0.43124778886418
  O   -3.01689774930415     -2.78728223471638      0.10868046862537
  F   2.43831205384539     -0.59178633496181     -0.10039843973895
  C   -1.68329002720418      1.97891732483903     -0.78526061500249
  O   -2.83688191107552      2.12821161484030     -0.46568885117981
  O   -1.00423764847246      2.97621083140454     -1.40647367219333
  H   -2.76017982189726     -0.42016043713392     -0.32570192175845
  H   1.09352737092418      1.53930206893718     -0.55806680050527
  H   0.87398295730377     -2.66841208544031      0.24429437998709
  H   -0.16558514144901      2.65293897844696     -1.76407888822247
