20
Coordinates from ORCA-job sli_prashanth_inp/doublemontecarlogen3D509
  C   -0.67046560453340      1.23555098636667     -0.00550331038694
  C   0.72019975239974      1.15126503648782      0.07524198675300
  C   1.31020310061086     -0.10705424076890      0.09373124676627
  C   0.55412343899169     -1.27223788485744      0.03430235643789
  C   -0.83469329558318     -1.16420322119393     -0.04517940652544
  C   -1.47116032470787      0.08572686172238     -0.06705818540586
  C   -2.97967894601445      0.18591963343888     -0.11611753793103
  C   -3.62533105453971      0.19821519685412      1.28156540028251
  N   -5.08518559458733      0.23976767741240      1.16514954469033
  F   2.65656583109574     -0.20002202351227      0.16507818225773
  H   -1.14069545319808      2.21587766411763     -0.02740516835851
  H   1.34504378826951      2.03727648337983      0.11788800865461
  H   1.05257400424173     -2.23592579769972      0.04497380939735
  H   -1.43494176661121     -2.06937235113177     -0.09807110257774
  H   -3.40562604364364     -0.65216626596066     -0.67852787160594
  H   -3.27205866419466      1.10205760839374     -0.64706632108410
  H   -3.18920749678059      1.02843577915931      1.86621921901346
  H   -3.35200994764025     -0.72536560654084      1.80666123539652
  H   -5.37448555434264      1.13399183062269      0.77350399663016
  H   -5.51095016923225      0.18418263371007      2.08716391759575
