15
Coordinates from ORCA-job test_5_sl_inp/doublemontecarlogen3D323
  C   -1.28425134669081     -1.10768108749221      0.13007621812103
  C   -0.09461751721302     -1.81343270881624      0.11408954477667
  C   1.13814638295041     -1.15661911218851     -0.00589109448976
  C   1.15269546596624      0.24330763958478     -0.10782996858290
  C   -0.03607747379453      0.96440031935679     -0.09390688809298
  C   -1.25732465785896      0.29305808740605      0.02409107192500
  O   -2.44648516023713      0.94098908632367      0.04272913268328
  F   2.28337067984443      0.94070890956913     -0.21703513366021
  N   2.35605993795707     -1.96385130795828     -0.02081613393080
  O   3.43422756988532     -1.38922877762465     -0.15750251830853
  O   2.22333161830766     -3.18419791867540      0.10391377183617
  H   -2.23891873128717     -1.61264068176372      0.22239485803314
  H   -0.08073468403381     -2.89335729639332      0.19372466533531
  H   0.01902600633716      2.04581711349095     -0.17553883347942
  H   -2.30598809013287      1.89415773518096     -0.03787869216599
