20
Coordinates from ORCA-job test_7_sl_inp/doublemontecarlogen3D353
  C   1.23374238482744      0.62462762979793     -0.15000549465899
  C   0.41692457513087     -0.51017160423790     -0.24718722901414
  C   -0.97242708991348     -0.35951301463127     -0.26742087447058
  C   -1.51130101160497      0.92016494590945     -0.16886473083772
  C   -0.71804758491653      2.05580496140727     -0.04998721923050
  C   0.66856375816152      1.89505850440198     -0.04202945050870
  C   1.56427447356734      3.11001785461511      0.04037236608112
  F   1.91801740482692      3.53938674966316     -1.18863279108013
  F   0.94789170528811      4.13454578144250      0.66442342922718
  F   2.69950594159540      2.83469491595655      0.71279811702296
  N   -2.97982701827189      1.07364704838936     -0.18537985631304
  O   -3.43035056160768      2.21240680938955     -0.09750685870731
  O   -3.65202803076893      0.04833576349498     -0.28314396626391
  C   1.10372187232035     -1.84607259661560     -0.36406085807172
  O   2.26074882797774     -1.94798666325781     -0.69261053434792
  O   0.36683881376951     -2.94792926135499     -0.08719022661392
  H   2.30964429758423      0.48978370566945     -0.15301021426478
  H   -1.65750003670892     -1.19203770381340     -0.38465811704623
  H   -1.18068510972029      3.03062879164634      0.03746335484823
  H   -0.48281761153675     -2.71461261787266      0.31202115425008
