20
Coordinates from ORCA-job test_7_sl_inp/doublemontecarlogen3D357
  C   1.25749547165782      0.53344847291147     -0.10022566146897
  C   0.44882386585812     -0.60850830301518     -0.01451945279951
  C   -0.94042686804869     -0.47619130641542     -0.08999929071089
  C   -1.48823601893979      0.79611862973254     -0.22829772599422
  C   -0.70388882906065      1.94173749134344     -0.29504682071956
  C   0.68302093652768      1.79767608260690     -0.22763042275683
  C   1.56160291677539      3.02729280902500     -0.24218053796168
  F   0.97913129194277      4.04137939824053     -0.91377436019094
  F   1.80247545451763      3.46193337679363      1.01324288561791
  F   2.75300216460001      2.77454224469594     -0.81724741528277
  N   -2.95625172113031      0.93041761953610     -0.31416187146126
  O   -3.62104019074406     -0.10226334964410     -0.24808411500065
  O   -3.41385649447701      2.06269758745964     -0.44097115362263
  C   1.14549221499962     -1.93910457624973      0.10674947198863
  O   2.31247662898871     -2.08192175497263     -0.16682939444062
  O   0.40559484911735     -2.98856813303653      0.53667375887486
  H   2.33427654946617      0.40827686997848     -0.07371244157559
  H   -1.61918960415139     -1.32197294950373     -0.07970798900123
  H   -1.17277826367025      2.91092298679782     -0.40825575679892
  H   -0.45728435422913     -2.70166319628417      0.86643829330486
