16
Coordinates from ORCA-job sli_prashanth_inp/doublemontecarlogen3D487
  C   -1.24518756372693      1.18783858223974      0.02825491940893
  C   0.14547718351095      1.21292904487243     -0.00568640958474
  C   0.83340288027393      0.00242086104902     -0.02235815919996
  C   0.17486029021200     -1.22285718239552     -0.00058499135106
  C   -1.21901378451189     -1.23107164762434      0.02793979353700
  C   -1.94258029028290     -0.02910047922397      0.03270369927887
  C   -3.44235447721545      0.03896529475482      0.06954518450262
  O   -4.03639920530944      1.06374165971672      0.38368685894840
  N   -4.11709866372181     -1.11939449582905     -0.24351822530158
  F   2.18019761295323      0.01654590695245     -0.05239196171243
  H   -1.82129219657625      2.10645802842847      0.05493836065310
  H   0.70130224133772      2.14452967821275     -0.01596491990547
  H   0.75201676299890     -2.14130082714809      0.00430436265986
  H   -1.73417630603722     -2.18558122149413      0.08195607274493
  H   -3.68210097503310     -1.82178734589563     -0.82135801675655
  H   -5.11832350887172     -1.01834585661568     -0.33170656792194
