18
Coordinates from ORCA-job test_5_sl_inp/doublemontecarlogen3D317
  C   1.36474488259890     -0.56226921154509     -0.28430671504397
  O   2.51848580181476     -0.08478129614080      0.38360480235151
  C   3.04739630744677     -0.87457175048285      1.36663766987301
  C   4.17190119336318     -0.36661710442458      2.03698463379892
  C   4.80815002802402     -1.05932902643363      3.05098678950450
  C   4.33352077477446     -2.32445532056554      3.44402121187423
  C   3.21413694665493     -2.84519529718628      2.78390804976807
  C   2.58067049201976     -2.12982043754393      1.76170528065233
  N   4.93479498604847     -3.00709830608965      4.51170174153885
  F   4.64355612926184      0.84213355032846      1.67103087927731
  H   1.09296497688239      0.20929988313077     -1.00694982325983
  H   0.52742041699071     -0.71718449318341      0.41011301255179
  H   1.56201776720899     -1.50191146330426     -0.81884322295666
  H   5.66750565063842     -0.60227901504812      3.53231046739606
  H   2.82431793442916     -3.81837425746834      3.07096492369331
  H   1.71761261397892     -2.56769928841354      1.27330584119788
  H   5.91212431247337     -2.78682312116100      4.65139645587139
  H   4.78848878539094     -4.00794404446820      4.49850800191128
