15
Coordinates from ORCA-job leia_inp/doublemontecarlogen3D223
  C   -0.12618782349931     -2.20244344966334      0.12573702158562
  C   -1.31119048966852     -1.47378805024957      0.05671173439460
  C   -1.24336806319792     -0.08964090075927     -0.05046816146213
  C   -0.01346583572939      0.56691939068288     -0.08297106423219
  C   1.16450361654378     -0.17348247433603      0.00258205026303
  C   1.12854325143540     -1.57138803029074      0.09809660423259
  C   2.40406714847364     -2.35058345510441      0.24299096231738
  O   3.37313159789636     -1.95858333134596      0.84102587360389
  O   2.39669243918214     -3.58651875124250     -0.33036387698012
  F   2.31865846152976      0.49131047027489     -0.04352258356630
  F   0.03678073839628      1.89722471303563     -0.19685170305627
  F   -2.35956632224184      0.64455780169738     -0.12405501116666
  H   -0.17746918149701     -3.28032944668734      0.24596371587049
  H   -2.28238358105702     -1.95394822011848      0.09450085331047
  H   1.63081404343366     -3.67824626589314     -0.91488641511440
