14
Coordinates from ORCA-job leia_inp/doublemontecarlogen3D177
  C   1.07685915855438     -0.08073599769775     -0.18615614053785
  C   2.57721112700901     -0.01251290856760     -0.06265678253078
  N   3.23683514430221     -1.18382614266159     -0.17801989219270
  C   4.54574691447022     -1.15873116552036     -0.07676049515721
  C   5.32956449274095     -0.02463229918218      0.14040593463026
  C   4.64632446737840      1.18025048813892      0.25905082124357
  C   3.25197238990478      1.19196697757019      0.15740711529084
  F   5.17072226420511     -2.34308172292235     -0.19587918225143
  H   0.66305868024097     -0.75447706090849      0.57150555491403
  H   0.79479812633833     -0.48858133523885     -1.16275822028174
  H   0.61592785759123      0.90354593144827     -0.07042048208848
  H   6.40823092726359     -0.10232831712994      0.20931344713084
  H   5.19356278709687      2.10309663182411      0.42939903494011
  H   2.69606566290391      2.11953692084761      0.24693928689054
