30
Coordinates from ORCA-job test_1_sl_inp/doublemontecarlogen3D25
  O   6.82588847488630     -5.70031787109865      0.96553004421533
  C   6.17325278893855     -4.68858110470373      0.22239700246117
  C   6.60357359975454     -3.25103117136304      0.55278713417770
  C   5.40158745682456     -2.40709576595559      0.12968823733984
  N   4.24081590452152     -3.33183995733227      0.28722177641682
  C   4.68483299403016     -4.70435471488213      0.59258805114569
  C   3.00321915525431     -2.79608037656435      0.46187904342682
  O   2.82723364149351     -1.56804609261495      0.33852220428319
  C   1.84277207453882     -3.67035334337966      0.82813153011981
  C   0.97448214084291     -3.19647060270142      1.82483745162820
  C   -0.15797255173142     -3.92047146394254      2.18565730225925
  C   -0.43343857628111     -5.10778054281614      1.51286879470813
  F   -1.53203945627187     -5.80932098304761      1.84874573701599
  C   0.38484953907675     -5.58519738011234      0.49491594517200
  C   1.52849719232311     -4.86162329331824      0.15894086104817
  C   5.50260448488798     -1.89740260121028     -1.32806756763050
  O   4.49538183200622     -1.10915965883973     -1.71406232887339
  O   6.42418416318384     -2.18307855660129     -2.06011621921065
  H   7.72335406305738     -5.79441036426606      0.62203624913019
  H   6.28195033961824     -4.85330604460031     -0.85932688945029
  H   7.50693028978572     -2.94352924155642      0.02318506855746
  H   6.76523993529744     -3.17482634215902      1.63322691095000
  H   5.23661937538497     -1.53995279799528      0.77881225075077
  H   4.13272143371914     -5.45260600150801      0.02531718989454
  H   4.58086111657396     -4.92994514908128      1.66151104710474
  H   1.19490327804333     -2.25055565306026      2.30807728544273
  H   -0.83078181314664     -3.57571554256891      2.96347304650464
  H   0.11829677091339     -6.50001393628098     -0.02311495857881
  H   2.14922463116822     -5.21419389682702     -0.65783685608877
  H   3.82837572130613     -1.04686954961241     -0.98436534392080
