22
Coordinates from ORCA-job test_3_sl_inp/doublemontecarlogen3D284
  O   1.12162487643214      0.51060042986394     -1.92081518007947
  C   2.54104669444232      0.54463424419932     -1.94055933153891
  C   3.00244407969964      1.24445388251699     -0.65747955051962
  C   4.50847676397417      1.35167724280243     -0.57347835785255
  C   5.18515984792986      2.45021228227107     -1.12652874065488
  C   6.57616892048645      2.53316904793615     -1.08576057435337
  C   7.32364089245474      1.51633738007057     -0.48926935557194
  C   6.66218017066888      0.42061366761039      0.06603575356019
  C   5.26633960671350      0.33937391015415      0.02330392950844
  C   7.42786773382198     -0.69788782098159      0.71985910630870
  F   7.18307069817489     -1.88400625966848      0.11346978202134
  F   8.76316002412081     -0.49752806809834      0.68579259894053
  F   7.07715130198513     -0.85178213633071      2.01858133202022
  H   0.81833748752970      0.06740604968716     -2.72288603896862
  H   2.92282173153793      1.09553964834099     -2.81594050300499
  H   2.97238833072149     -0.46887619442838     -1.98080277631806
  H   2.60769597146170      0.68486725638672      0.19768590109529
  H   2.54416909430146      2.23934935284923     -0.62936178136576
  H   4.61076190127610      3.24996356961358     -1.58823110420377
  H   7.08145669561213      3.39321387928603     -1.51557025979244
  H   8.40559602249680      1.57199573110228     -0.45049899044156
  H   4.76593115415815     -0.51898709518348      0.46396414121124
