19
Coordinates from ORCA-job ewa_inp/doublemontecarlogen3D10
  C   2.46450057090134     -1.56838062838284      0.43544026856367
  C   3.41881486609019     -0.68981431969271     -0.37120442475453
  N   4.42254581751851     -0.01646125320089      0.48846563838763
  C   5.72449964076202     -0.70927461577303      0.63677643323188
  C   6.68098213422128     -0.46546924721053     -0.53115026252846
  S   4.24270426185813      1.55456402858426      0.95448010482280
  F   5.93819975691751      1.35100290087483      1.23260252265360
  F   4.62539935191726      2.47145619737542     -0.35905324057951
  F   2.70355906539894      1.26641406339727      0.23771628861488
  H   1.79757101871156     -2.11673350483643     -0.23866611932289
  H   1.85265425440494     -0.94920464858151      1.09669475108826
  H   3.00589139750313     -2.29959788454580      1.04501844783698
  H   2.86533781207170      0.06356840965377     -0.92555826672718
  H   3.98398662035065     -1.28383334630982     -1.09643753305835
  H   5.47543697379896     -1.77142767296111      0.73239908295797
  H   6.18594767809054     -0.39260723293288      1.56974878523877
  H   6.23681296313159     -0.75447236372099     -1.48950638871987
  H   7.59568896585107     -1.05212141838145     -0.39363801046065
  H   6.94723685050045      0.59213253664447     -0.57177807724498
