22
Coordinates from ORCA-job raina_inp/doublemontecarlogen3D571
  O   4.81078845558069     -1.05001711082267      2.02346816462798
  C   3.93718335062356     -0.09511581191662      1.63062589483057
  O   3.04563688776676      0.27397914244752      2.35371089571293
  C   4.12843145210308      0.43352853090339      0.19776470301760
  C   5.52425404160901      0.34228054947451     -0.34597939732878
  C   5.99639375343666     -0.56373710160190     -1.27230260298184
  N   7.32994489338773     -0.32820235480736     -1.52728589546817
  C   7.75692550672096      0.74524168823953     -0.76553654180195
  C   9.01333026331925      1.35483428703447     -0.67719831275104
  C   9.14570834022257      2.43717397016469      0.18348130409257
  C   8.03988844748274      2.88161705980069      0.92838361808357
  F   8.21915037741649      3.94400076528698      1.74569793514181
  C   6.79258950768872      2.28887324447544      0.86311062791214
  C   6.64177981611102      1.19268229875588     -0.00638043766641
  H   5.48061943104792     -1.15942368481684      1.32655548611319
  H   3.75727234982056      1.46263507634913      0.19656954756829
  H   3.43947803472993     -0.14197018545161     -0.43388659028402
  H   5.46633319065802     -1.35254836929783     -1.78923387349040
  H   7.89941954112376     -0.85214334617602     -2.17165151670586
  H   9.85945613585890      1.00104767287609     -1.25892863196886
  H   10.09160362954810      2.95526892409885      0.29751253773409
  H   5.97612259374350      2.66895475498367      1.46820308561259
