17
Coordinates from ORCA-job test_7_sl_inp/doublemontecarlogen3D361
  C   1.57958939091140     -0.62426810206355      0.19562477538314
  C   0.63497671819308     -1.65169853696270      0.18022465551786
  C   -0.71365624806346     -1.34680578713144     -0.02883435981357
  C   -1.12022064763897     -0.02786007475103     -0.22303594788759
  C   -0.16778303490924      0.99892346450765     -0.20339743624171
  C   1.18875951125938      0.69863404596870      0.00743779633931
  N   -0.58583378105458      2.30344769442545     -0.39599076463727
  C   -0.34560382406719      3.47554808609225     -0.48049495944181
  S   -0.14808785787865      5.04400082094924     -0.60863003718402
  C   -1.74593152119727     -2.44341172542170      0.02966202880306
  F   -2.83830986757166     -2.14834760497872     -0.70765140405975
  F   -1.25142065116674     -3.61734504621082     -0.42038177149112
  F   -2.16929480310493     -2.65351588008879      1.29672965196478
  H   2.62835283260460     -0.85595731277155      0.35349588456308
  H   0.94096225720362     -2.68229894116273      0.32103582973258
  H   -2.16315855958511      0.21227098835955     -0.39455252662089
  H   1.91829008606572      1.50223391124022      0.01844858507392
