31
Coordinates from ORCA-job leia_inp/doublemontecarlogen3D22
  O   2.59709344818043      3.15469196434394      3.93823377087875
  C   3.89227713409895      3.29743195854750      3.64193371038249
  O   4.69690354775440      3.74889668503291      4.43130191475189
  C   4.31123926975135      2.86260562411829      2.25907506378241
  C   5.63069539894089      3.00192825829280      1.89564468049060
  C   6.07965579481049      2.61153527193560      0.61463366156389
  C   5.16755409379160      2.08400199900314     -0.25861840892288
  N   3.85443299073970      1.92969355660053      0.07858374696875
  C   2.90248385675036      1.35330372735110     -0.90434044233061
  C   2.33063544752239      2.38749483039986     -1.85338208046433
  C   1.32389185698705      3.26876277969499     -1.42676036435543
  C   0.81439131402264      4.22773927518980     -2.29976389953382
  C   1.29700858478773      4.32176837771789     -3.60737799435598
  C   2.29451078952472      3.44640152650871     -4.03586942529586
  C   2.81229767111096      3.49349592160708     -5.44880983795798
  F   2.34519437317542      2.45741416745379     -6.18328819138899
  F   2.45863662700738      4.62900346247750     -6.08553229901824
  F   4.16367398723055      3.41143749469464     -5.48215433648669
  C   2.80784361569744      2.48187114807992     -3.16209154757653
  C   3.34605813729234      2.31981605775973      1.32833845742478
  O   2.12544467010959      2.18157702382979      1.56439303372282
  H   2.13367738507929      2.76971348785586      3.14959502229668
  H   6.31030798617051      3.42296023703763      2.63066949566658
  H   7.11549950000197      2.71707813652346      0.31675945826943
  H   5.43431885692024      1.76121198688709     -1.25892933379890
  H   2.11181367506303      0.88377553134774     -0.31849959264078
  H   3.43969049715407      0.57888685341208     -1.45749946035360
  H   0.95542195811896      3.19561362107023     -0.40819298191927
  H   0.03656586822231      4.90617309026344     -1.96255915451131
  H   0.90519363951976      5.06859893018192     -4.28893187318061
  H   3.58129802446339      1.80343701478090     -3.51253079210722
