24
Coordinates from ORCA-job sli_testing_inp/doublemontecarlogen3D602
  C   1.94286318712936     -1.58412819857760      0.42205036481243
  C   0.59365372828879     -2.03784372631811     -0.14952337543101
  C   -0.44770072760138     -0.93981229289701     -0.09601236828443
  C   -0.06553769994434      0.41683960392225     -0.10603014426048
  C   -1.03787808198834      1.42689129815456     -0.06309068807139
  C   -2.38733024291741      1.09994625539948     -0.01868602345162
  C   -2.77708786026831     -0.24678098847713     -0.01117637077694
  C   -1.81439948245376     -1.24942362122719     -0.04706874320087
  C   -3.43635203491970      2.17509322040331      0.07810364548317
  F   -4.54109102252125      1.85721575360212     -0.63704995564159
  F   -3.84175229528597      2.35820845912859      1.35729032974381
  F   -2.98797625589613      3.36515368659432     -0.37162045054828
  C   1.37456145852701      0.82465536539109     -0.16537172458468
  O   1.70440748893553      2.00045873741684     -0.15814079725264
  C   2.40594535855623     -0.29111769349414     -0.26044683330129
  H   2.69293260648815     -2.37154866619769      0.29172183600418
  H   1.84364740941358     -1.41499885537870      1.50198725629791
  H   0.22296969267433     -2.92263626393635      0.38021879753945
  H   0.73175465149521     -2.34601594754615     -1.19737013813761
  H   -0.70679388549855      2.45945205380156     -0.07362350876799
  H   -3.83134069211792     -0.50334506192209      0.02039054091615
  H   -2.12500744733549     -2.29104999285029     -0.03532092956745
  H   3.34845929578370      0.08809314503431      0.14447483995376
  H   2.57453285145668     -0.48036627002598     -1.33203555947259
