14
Coordinates from ORCA-job leia_inp/doublemontecarlogen3D180
  C   1.31685754907620      1.19938929727005      0.00404063137588
  C   1.95701381541091     -0.04623899668014     -0.00126017653696
  C   1.15725937969062     -1.18351628730747     -0.00970788701441
  N   -0.18386132769289     -1.15528252272827     -0.01281436877678
  C   -0.74919127341710      0.02943395827763     -0.00735774843097
  C   -0.07067450047666      1.25268140342799      0.00098563310863
  F   -2.08800246774931      0.04969098814867     -0.01075359317918
  C   1.76199735177705     -2.57487503413658     -0.01452129816476
  F   1.38062297665202     -3.27006553654496     -1.10138867925986
  F   3.11381668221681     -2.52000345968367     -0.01761423620099
  F   1.38606780604065     -3.27428687054098      1.07201711111516
  H   1.89904564395202      2.11589666624293      0.01044498586931
  H   3.03616367485992     -0.13122526165507      0.00070022468320
  H   -0.62274531034025      2.18534165590988      0.00475940141174
