17
Coordinates from ORCA-job sli_prashanth_inp/doublemontecarlogen3D535
  C   -0.88318817765366     -1.01121825961044      0.88171359551332
  C   -1.77095983073829      0.05785631849415      1.04256936392600
  C   -1.36337136859651      1.32553425605991      0.60432728427637
  C   -0.09706598575386      1.54865536745931      0.06589432666720
  C   0.77125565214821      0.47657789042650     -0.06381780651021
  C   0.37346245477220     -0.80301785862292      0.33240722417361
  F   1.22308056836793     -1.82300782670052      0.18128867448042
  F   1.98965159248882      0.64841692420607     -0.58575573953019
  N   -2.29270740321611      2.46889402812188      0.59760677574310
  O   -3.48818106593153      2.22032218639956      0.46475101059664
  O   -1.80234544110263      3.59314706011474      0.68094008831219
  C   -3.07231247517299     -0.25732659109308      1.72483386661895
  O   -3.72868654706766     -1.24390868874986      1.47929465242544
  O   -3.35983736712915      0.61448054010663      2.70915371127131
  H   -1.17199944063259     -2.00802910707719      1.19495761638577
  H   0.19394256281230      2.53960748596704     -0.25967240581563
  H   -4.21864772759445      0.34630627449820      3.07825776146570
