17
Coordinates from ORCA-job srijon_inp/doublemontecarlogen3D448
  F   3.54203140414344     -2.04929149878481      0.59015414040094
  C   2.53008806089357     -1.90779347715272     -0.29409471365606
  F   2.10684008142319     -3.14365865024517     -0.62568297505274
  F   1.51659133513363     -1.29381214334617      0.35595092602342
  C   2.96390244499087     -1.11945545792639     -1.50559025070465
  C   2.91607791711310     -1.71213651522913     -2.76575426669214
  C   3.31203158679901     -0.99121166049418     -3.89155672583342
  Cl  3.24616603988522     -1.75294434533567     -5.46669054137984
  C   3.75751837141283      0.32561784990443     -3.77628092934862
  C   3.80862923627083      0.92025083920915     -2.52026353402019
  C   3.41856108147901      0.21294488794944     -1.37287886154140
  N   3.49585633362723      0.85088296130106     -0.15738481359741
  C   3.39110635667760      0.93653749337898      1.03384482299457
  S   3.29470437387333      1.16752273588074      2.59524385990763
  H   2.56982245793398     -2.73318868389997     -2.86523569205852
  H   4.06133730289211      0.87783351188585     -4.65858607935175
  H   4.15262561545096      1.94242215290458     -2.40746436608980
