17
Coordinates from ORCA-job srijon_inp/doublemontecarlogen3D447
  C   0.37877277618166     -1.22630353426474     -0.05169583645832
  C   1.76558601295823     -1.16290547563843     -0.12990035212662
  C   2.44349146119271      0.06333993582202     -0.10263883441168
  C   1.69170577914374      1.25226723130776      0.00701382433346
  C   0.30075938760629      1.20110375965322      0.08536218716317
  C   -0.34327277435281     -0.03697823615042      0.05552441082694
  Cl  -2.08896078149825     -0.09108608600714      0.15638585346475
  C   2.36739673241177      2.60686002495299      0.04643587535025
  F   1.47968964702981      3.61321325682312      0.16301231896617
  F   3.22253870250764      2.70167391917166      1.09040950198160
  F   3.08934908099233      2.83453676383104     -1.07472038161959
  C   3.93467223872450      0.02970718338003     -0.19270887314731
  O   4.55929648716390     -1.01026005801505     -0.28616852672476
  H   -0.13938311193901     -2.17878370308981     -0.07261341313322
  H   2.36006534162727     -2.06694593877963     -0.21400449103265
  H   -0.27665160339288      2.11280950171090      0.16954901375913
  H   4.45697462364311      1.00113145529248     -0.17112227719132
