19
Coordinates from ORCA-job sli_prashanth_inp/doublemontecarlogen3D526
  C   1.90856976476977     -0.63503216902077     -0.05110620351951
  C   0.72861439359810     -1.38067638231749     -0.05750982071903
  C   -0.51954228323140     -0.75430727828525     -0.01989113447902
  C   -0.58348382812241      0.66312935757681      0.00595347956466
  C   0.59794573182812      1.39852881568497      0.02341546796780
  C   1.84335379990351      0.75557084442905      0.00050681415598
  C   3.08665975134417      1.59254557664949      0.03243920068032
  F   3.04456664178217      2.58817735385708     -0.88896860206372
  F   3.26316522221832      2.20114060523619      1.23214169344663
  F   4.20220359912292      0.86894901279644     -0.21067839674615
  N   -1.85996729017668      1.25720955459771      0.05944939793232
  N   -1.72767331690494     -1.46175013465301     -0.05951024269942
  H   2.87016237225168     -1.13419174510780     -0.07836359263766
  H   0.77566825037396     -2.46679519570351     -0.08333167515232
  H   0.55131311439016      2.48441057156798      0.03610625215587
  H   -2.49479264106213      0.86836571534225     -0.63247885379313
  H   -1.83260487354998      2.26631517123056     -0.02515811896879
  H   -1.62801660693201     -2.45560227847197      0.10404239310456
  H   -2.43769180160333     -1.06067739540874      0.54531194177061
