32
Coordinates from ORCA-job sli_prashanth_inp/doublemontecarlogen3D57
  C   2.54509418016408      4.13060588478720     -3.74630725405410
  C   1.34635399531144      3.43060489225730     -3.86276605703160
  C   0.86621082678510      2.70746433095182     -2.77075415602760
  C   1.57322529154490      2.66822748122861     -1.56052927956783
  C   2.79655305111229      3.36445865518295     -1.44305010747549
  C   3.25517009728866      4.09304075232718     -2.54461651193588
  C   3.61520602853375      3.35587794338854     -0.17266341906818
  C   2.93000804094453      4.02632263080725      1.00616543039041
  O   1.77644252612700      4.39148379057146      1.05923447820035
  O   3.78789034076620      4.16498965227110      2.04426854734831
  C   1.05092465184943      1.83979361709060     -0.41655648617431
  O   1.78075339506654      1.13633024509975      0.27749587603774
  N   -0.31168721721466      1.92141037222297     -0.24186669585111
  C   -1.09279282863305      1.29482577886798      0.74372019463036
  C   -2.44932939067433      1.64986583673254      0.79671952757254
  C   -3.33773388217102      1.11818532534378      1.71505359744688
  C   -2.84029562608092      0.18345327276309      2.61894197605904
  C   -1.50839281934889     -0.20966901847999      2.60451956467402
  C   -0.63310870459890      0.34427585105519      1.66783872679579
  F   -3.68272170318230     -0.34708493634828      3.52938035670013
  F   -2.89529639589943      2.56487810158386     -0.10246997300679
  H   2.93211432757532      4.70121767855720     -4.58571640902500
  H   0.78951277705707      3.43992813704151     -4.79512468391090
  H   -0.05501142545117      2.13983817701502     -2.86922556541161
  H   4.18935801821062      4.64240158554399     -2.45817310905347
  H   4.57845858447494      3.85113613802130     -0.33091208341290
  H   3.82651601595217      2.32888230290556      0.14203967511717
  H   3.27568636047838      4.56893317932722      2.76504878704526
  H   -0.79532393792542      2.63388455885561     -0.77016328494412
  H   -4.37716122443504      1.42286855932180      1.72479002733567
  H   -1.15980938842507     -0.94231331576657      3.32397158994194
  H   0.40915603479776      0.06031253947244      1.64471672065527
