18
Coordinates from ORCA-job srijon_inp/doublemontecarlogen3D472
  C   0.66633648459623     -1.23148289981688     -0.33235265887502
  C   -0.69610759915692     -1.31153573334769     -0.61595732823494
  C   -1.52835913537865     -0.18512514811117     -0.54010619935615
  C   -0.96263391254659      1.05575450430268     -0.18211198129796
  C   0.40213076374397      1.14856084369973      0.08586486729570
  C   1.19176592089634      0.00532504491444      0.01542519665923
  F   2.50365079815697      0.11039955900256      0.28352932551267
  C   -1.79199128148727      2.32522219122066     -0.10482167540113
  F   -2.53182548929597      2.37986625036286      1.01296266126713
  F   -0.99433081993488      3.42004100795329     -0.10808068256125
  F   -2.61811473597339      2.43660313109819     -1.16521770041038
  C   -3.00759477142913     -0.37020908453512     -0.76787006648155
  O   -3.86423943208317      0.05791066506761     -0.03874166517300
  O   -3.33193105816385     -1.13043014279759     -1.84930773538416
  H   1.31089738760990     -2.10255032093599     -0.37416355996165
  H   -1.12782525412210     -2.27567571071897     -0.86910626840153
  H   0.85696879631232      2.09832993538261      0.33750475794148
  H   -2.54918666174381     -1.26838409274122     -2.40192928713750
