17
Coordinates from ORCA-job test_7_sl_inp/doublemontecarlogen3D358
  C   1.34718976061076     -0.22506963996488      0.00770780506188
  C   0.48004319156507     -1.31895708276072     -0.02375839903749
  C   -0.90388236496287     -1.12176558340022      0.03856018628113
  C   -1.42443241595881      0.17742345877585      0.13565678023127
  C   -0.55818712256199      1.26363003770592      0.16814771861382
  C   0.82947407629157      1.06483669129960      0.10320550218789
  C   -1.08268264858296      2.66990192915987      0.30382203270870
  F   -0.53862327982975      3.48913260915871     -0.62533869905320
  F   -2.42180952686303      2.73132329994117      0.16823441730913
  F   -0.77268654978714      3.19261894750547      1.51278104269646
  C   -1.82405747488220     -2.28504226125014      0.00175417183732
  O   -3.03576175898283     -2.20307218785350      0.04722726014134
  H   2.42111339260916     -0.37564506299453     -0.04302531763004
  H   0.87541441456581     -2.32952317531418     -0.09818706139205
  H   -2.49962705344996      0.31016275961739      0.18111057406949
  H   1.49582388546387      1.92183449213832      0.12335033582588
  H   -1.31873852524468     -3.27366923176413     -0.07242834985152
