17
Coordinates from ORCA-job srijon_inp/doublemontecarlogen3D476
  C   -0.78364175679759      1.46576609642229     -0.16149308669732
  C   0.59301901001299      1.31138232807837     -0.07002623634096
  C   1.14451694051907      0.03370994799325      0.01305989982707
  C   0.33855804694087     -1.10686282422332      0.01604958056888
  C   -1.04595749652654     -0.94637925730131     -0.08165048255718
  C   -1.61330160671891      0.32875594237473     -0.17056154952795
  N   -2.98309442683559      0.45071462077155     -0.25887541224316
  C   -4.02301493620048      1.03036325243983     -0.36813683210652
  S   -5.45011241885386      1.70261614973313     -0.53943168692986
  C   0.88654408545810     -2.51366522369404      0.05727772822803
  F   0.94492639230551     -3.04091879791894     -1.18726798063847
  F   2.11620815184872     -2.58471535170995      0.58865786123132
  F   0.07831417162890     -3.31793358329655      0.78781540477235
  F   2.48053065160548     -0.07133751705383      0.07930407002472
  H   -1.22506029208437      2.45447951580627     -0.22787710242512
  H   1.25842632459957      2.16786817687357     -0.06571753046118
  H   -1.69091084090186     -1.81700347529503     -0.07504664472465
