19
Coordinates from ORCA-job test_4_sl_inp/doublemontecarlogen3D291
  C   2.38015094003463     -2.34648533521900      1.03865316556537
  C   1.47036847760545     -3.08201623020182      0.27747121613277
  C   0.48748422905827     -2.42741551087107     -0.47702358985419
  C   0.41576828119511     -1.02801089276908     -0.45244354671859
  C   1.33323257462491     -0.29402736082090      0.30046809740357
  C   2.31593704394141     -0.95404974780726      1.05351220149631
  S   1.19683049972588      1.49660555078015      0.35470179450906
  C   2.61047237792311      1.93127003365526     -0.71638379203911
  F   2.66591026438266      3.27022570194928     -0.78107962534882
  F   3.78543113581855      1.48294393041180     -0.23354086929790
  F   2.48763165631808      1.44765296996075     -1.96224576270254
  C   -0.53589521902854     -3.15702614989751     -1.30042738004279
  O   -1.59885446147202     -2.67475360620475     -1.61018711652829
  O   -0.21538862791134     -4.41769733087073     -1.69493881171124
  H   3.13091184441649     -2.85948427479049      1.63200896476956
  H   1.50991151118480     -4.16813236995633      0.31342408428056
  H   -0.35898763002673     -0.53330547378971     -1.02756300672165
  H   3.01730687562834     -0.37704389471546      1.64621444707443
  H   0.72035822658093     -4.59656000884313     -1.52717047026651
