22
Coordinates from ORCA-job test_3_sl_inp/doublemontecarlogen3D280
  O   3.80313011035679     -0.70301581487644      1.08173667853100
  C   2.84374961404419      0.32819762404454      1.29997212968328
  C   1.44544215027088     -0.29665132855782      1.07679487434842
  O   1.45277607315985     -1.59444568207080      0.74266734761402
  O   0.43435666273541      0.35367959242981      1.17442158149458
  C   2.95328969614980      0.97612108746269      2.67398064166066
  C   2.23561630571173      2.14768349596260      2.95115769433358
  C   2.33473071270806      2.75192714675970      4.20303394712430
  C   3.15311916221454      2.20031675304114      5.18944257558132
  C   3.86667506277508      1.03262381893585      4.91470177146084
  C   3.76413950573955      0.41717467148780      3.66326738240371
  C   4.70723299480752      0.40047352140686      5.99227047790204
  F   5.74801889021194     -0.29397724182178      5.47750478991068
  F   5.21542585069363      1.32393221657227      6.83908269040696
  F   3.98854662133514     -0.46563831119426      6.74291771412973
  H   4.68222085573472     -0.31567602459819      0.98431134240831
  H   2.93372696129819      1.10655866697101      0.52809029720408
  H   2.38308648956488     -1.88515697502606      0.70395884235284
  H   1.58866012480705      2.57156514328915      2.19019495713876
  H   1.77621435299455      3.65975998196896      4.40985751476142
  H   3.24502693726514      2.67492564294914      6.16050485119553
  H   4.31703486542125     -0.49252798513618      3.45859989835382
