25
Coordinates from ORCA-job sli_testing_inp/doublemontecarlogen3D61
  C   3.91930195417853      5.54183778613476      2.67326955578746
  C   2.89789832824738      5.56101117468961      1.72670657844454
  C   1.92354357591795      4.55603834219520      1.71404876737456
  C   2.04238434049536      3.54454446174558      2.70466725286186
  N   3.01232533079295      3.52148363488132      3.61171266214370
  C   3.92746141059030      4.49685623787139      3.59324988708882
  O   1.12149407067698      2.55428593031549      2.71468050478088
  C   1.14905853080267      1.57290604845577      3.70643459555274
  C   1.42945480138985      0.26615982325348      3.31606208006143
  C   1.35770043601847     -0.76482487789332      4.25477975658902
  C   1.00684566037361     -0.45524442773620      5.56350113192085
  C   0.72157035650075      0.84729319717933      5.96253653248714
  C   0.79030233672074      1.87221387392498      5.02058963337225
  F   0.93364831549832     -1.44770532938405      6.47666427847461
  C   0.83275440850581      4.56778057605607      0.70352952834405
  O   -0.03136182698040      3.73097614536471      0.55412339532778
  O   0.89786968997199      5.67473786347283     -0.09174000494269
  H   4.68335863680106      6.31109053699949      2.69694487016499
  H   2.84087421483245      6.35061668058583      0.98664821130472
  H   4.70330509719376      4.43123669000248      4.35434949684869
  H   1.69125861599057      0.06481577569023      2.28277079690311
  H   1.56644592763589     -1.79374864639026      3.98237564289312
  H   0.44728885583047      1.04386331793392      6.99333614450495
  H   0.56840507099803      2.89581979238230      5.30102064221926
  H   0.15771186101650      5.58470539226902     -0.71390194050791
