17
Coordinates from ORCA-job ewa_inp/doublemontecarlogen3D126
  C   2.20262185637648      0.18338494127215      0.41044758013097
  C   1.43504728809487      1.33046783161825      0.27309511232386
  C   0.07231270445025      1.25268796140015     -0.05564316591909
  C   -0.51146627693618     -0.01068411806873     -0.24706368324901
  C   0.25649130074739     -1.17977674586437     -0.11141167667111
  C   1.61057560443483     -1.06555688687351      0.21805992826345
  C   -0.33287357321878     -2.56119636101147     -0.31414684951925
  F   0.60067172533890     -3.52118274101187     -0.12760853229633
  F   -1.33587612325499     -2.81162205508241      0.55067923959204
  F   -0.81957120633960     -2.72075570716082     -1.56122019618706
  Cl  -2.21493118832503     -0.12529186221358     -0.66059280235502
  C   -0.67820838111861      2.53659028843084     -0.18279829256342
  O   -0.15259472740753      3.62094700432439     -0.01708850972089
  H   3.25554112758556      0.25106387410092      0.66443802387614
  H   1.85450245493867      2.32196959891624      0.41296448764121
  H   2.19705094595633     -1.97067805704105      0.32196764796992
  H   -1.74903353132257      2.45414303426488     -0.43787831131642
