22
Coordinates from ORCA-job sd_inp/doublemontecarlogen3D409
  C   0.91289437584617     -0.62770069783238      0.54251160257213
  C   0.14746233345425     -1.79108221929822      0.48633348290440
  C   -1.21518344311383     -1.71223190239963      0.19490957133787
  C   -1.80309950166838     -0.46653657634379     -0.03901170645304
  C   -1.03863146429459      0.69698435328006      0.01728396880121
  C   0.32908697173316      0.62954912608939      0.31987272407421
  C   1.23078475168782      1.86060681419112      0.36805094038344
  C   0.52300790898394      3.20696741535631      0.66631169480978
  O   -0.46446898199394      3.58950465930920      0.08376762028624
  O   1.15063125603990      3.94769596970872      1.59000269783374
  O   2.33068815325074      1.68563327061167      1.27682558892576
  C   -2.06162672356862     -2.95727427469697      0.16555812840860
  F   -3.03745095253039     -2.87390902689638     -0.76545210818767
  F   -1.32820204874279     -4.05913824132245     -0.10806173224814
  F   -2.67191842656766     -3.17393583814396      1.35379031565104
  H   1.97757246159879     -0.70215951777445      0.74141439385732
  H   0.61177338369972     -2.75736650836213      0.65147207306389
  H   -2.85999929981844     -0.40542298293548     -0.27699811411510
  H   -1.49511130504062      1.65919088458616     -0.17770774109903
  H   1.69437343867566      1.99627441873738     -0.61865359302194
  H   1.94117457849524      3.43720596396202      1.85862261777218
  H   2.01138253387386      1.15177491017380      2.02011757444311
