21
Coordinates from ORCA-job test_7_sl_inp/doublemontecarlogen3D365
  C   0.71441491245120      1.94052881043545     -0.15265513419343
  C   2.09498188528493      2.08108228508617     -0.31520783599471
  C   2.90252051308577      0.95316284698798     -0.28766642074397
  C   2.33569215360924     -0.30677712837774     -0.09568602610301
  C   0.96476893401409     -0.44719640714925      0.06606840579786
  C   0.13077274285319      0.68126484467004      0.03746962963720
  C   -1.36925173936945      0.53147728389403      0.17404618020563
  C   -2.05451928978255      0.24580112835317     -1.17278057697221
  C   -3.56951909720166      0.13483372449710     -1.04833820489728
  O   -4.18587967368877      0.29187371455386     -0.02473394268552
  O   -4.22786868750501     -0.15985933300636     -2.20280542617804
  F   3.13907000653117     -1.38441312329945     -0.06610493064544
  F   4.23427491761063      1.05621579976330     -0.43890112456050
  H   0.08579098814874      2.82668224103111     -0.16716045805973
  H   2.55667102099837      3.05258760158258     -0.45773463324810
  H   0.56204163350645     -1.44375905262249      0.22242318665235
  H   -1.80421670219459      1.44017601688012      0.60092279309398
  H   -1.61307451575850     -0.27777897913574      0.86977039909948
  H   -1.66559744989000     -0.68358616803203     -1.61165171844498
  H   -1.82111865800536      1.04073586278108     -1.89497828104810
  H   -3.60042389469788     -0.25596196889292     -2.93365588071149
