15
Coordinates from ORCA-job sli_prashanth_inp/doublemontecarlogen3D49
  C   -2.18202883899029      0.51921311750150     -0.17508472171242
  C   -0.69166497686095      0.56721666675972     -0.14787669273759
  C   -1.37691236783057     -0.65134313184011     -0.73858300340154
  C   -1.36211685281080     -1.90080205747149      0.12371086560893
  O   -1.05512588578854     -1.85852504899926      1.29099360524585
  O   -1.74802872038600     -3.06138437930628     -0.44525822790247
  C   -1.30341693695131     -0.80723794494708     -2.23170056405969
  F   -1.40909945423951      0.36736068818663     -2.87913271419763
  F   -0.15309835440866     -1.39072717299588     -2.62003139709959
  F   -2.31568614560581     -1.60713713846973     -2.70792662279651
  H   -2.71035635644576      1.13966446682442     -0.89100917511029
  H   -2.70542894530861      0.32005151991925      0.75374170367037
  H   -0.19168967620861      0.38868721789692      0.79705899887712
  H   -0.18742261231528      1.22956215584352     -0.84316293495063
  H   -2.07318387584929     -2.92035895890212     -1.34820911943391
