14
Coordinates from ORCA-job leia_inp/doublemontecarlogen3D192
  C   1.99247808313848     -0.12178841112345      0.06844554771307
  C   1.41748677168547      1.14812948592112      0.11539153457816
  C   0.02724341570666      1.28820073624949      0.04153523829851
  C   -0.70896637414529      0.09485336550868     -0.08009144474488
  N   -0.19085633706832     -1.11225825141367     -0.14143007995629
  C   1.14367564569406     -1.21889932195984     -0.06094801569180
  F   -2.03553662245711      0.16471116797858     -0.17582740223926
  C   -0.64822129773797      2.62291161226714      0.16323194398731
  O   -1.67073196950464      2.81103208364752      0.76976574530827
  O   0.00341846874193      3.65892901720298     -0.43680580867332
  H   3.06624995139017     -0.25704550768438      0.13784402557195
  H   2.04269258913296      2.02838685464780      0.24206623597917
  H   1.54285001061362     -2.23003485967971     -0.10128591670536
  H   0.69971766480995      3.32412202843775     -1.01952160342554
