18
Coordinates from ORCA-job test_1_sl_inp/doublemontecarlogen3D242
  C   0.99833126222482      0.11149206267755     -0.14557384628749
  C   2.49715633950943      0.15282643565676      0.01913378817214
  C   3.26124444541546     -1.00008044616280     -0.14001788649280
  C   4.65520319150215     -1.08234867186868     -0.00311553263431
  C   5.29083378686838      0.13504931697825      0.31576660400676
  C   4.58374044125955      1.31989710999998      0.48167635951608
  C   3.19866918575400      1.32069013250696      0.33704815347714
  F   6.61742260309417      0.18685069502113      0.45243773886280
  C   5.46508007516000     -2.35132648212247     -0.14316661363022
  O   6.61354933349507     -2.43348915628748      0.21743548632014
  O   4.85365570891438     -3.41523970442681     -0.70962611618810
  F   2.56457435068562     -2.13674831274727     -0.45966014231560
  H   0.53331658584753     -0.55276005054800      0.59100160253011
  H   0.71499160044460     -0.26005122385867     -1.13589240977278
  H   0.57088939956969      1.10914353697874     -0.01985802342529
  H   5.13328036671285      2.22329614969052      0.72111710900090
  H   2.64699192316468      2.24695181943973      0.46965527575710
  H   3.92214940037759     -3.22485321092744     -0.89614154689658
