15
Coordinates from ORCA-job srijon_inp/doublemontecarlogen3D462
  C   -1.80693973374858      1.42034436296710      0.14523096418981
  C   -0.41838012587667      1.53724021366193      0.10467616105200
  C   0.37206323752546      0.39431319305013     -0.01839830472957
  C   -0.24110733157649     -0.86261409673374     -0.08273386998437
  C   -1.62052786986627     -0.98676534660351     -0.03448886079812
  C   -2.41692629439301      0.16045352575676      0.06500631786501
  C   -3.90397855683535     -0.04305386922363      0.11936676576360
  O   -4.41249599024083     -1.09855957238260      0.41299045289886
  O   -4.68048059295438      1.03057108416774     -0.18081248372067
  F   0.51589223408529     -1.96156483419981     -0.18938503255774
  Cl  2.10748322183406      0.51310362094995     -0.08304047915361
  H   -2.39836797985826      2.32155930107244      0.28262061605564
  H   0.06036762777503      2.50766968975115      0.17553690507435
  H   -2.08148161038101     -1.96722132154492     -0.07255538353579
  H   -4.14558023548897      1.74052404931101     -0.56224376841937
