29
Coordinates from ORCA-job sli_prashanth_inp/doublemontecarlogen3D54
  C   0.73763965079681     -1.71608826048078     -0.11343188540070
  C   1.79095932951698     -1.22431670645830      0.88015297825914
  N   1.98281868500298      0.22036369577311      0.72525935697418
  C   0.80635674765417      1.03730039828999      1.02070216342631
  C   -0.47109699542357      0.43197795694100      0.45724008745700
  C   -0.51970468172952     -0.87506717555836     -0.05643477324097
  C   -1.74095842623314     -1.38906477307385     -0.52114219984041
  C   -2.90458714767506     -0.62987200364317     -0.49568207386133
  C   -2.82572248720853      0.67060889931517      0.00755289371031
  C   -1.63462840102069      1.20889581779738      0.48411229695313
  S   -4.29816763812545      1.68234136043409      0.04425451905776
  O   -5.47138473148268      0.82861287240257      0.18412256442326
  O   -4.06877504636836      2.84129326689364      0.89864944109596
  Cl  -4.34123502423021      2.41824002664723     -1.95978911377138
  C   3.23974616872563      0.68103235571829      0.45369125115903
  O   4.21118976151481     -0.03071248607069      0.25871433206462
  C   3.43105123347338      2.22124849928491      0.40489717842950
  F   3.03449128265675      2.79509787893450      1.56626082055139
  F   4.71005240440221      2.52132157768228      0.20787614426293
  F   2.70718882133709      2.78046724301761     -0.59495229929082
  H   0.49810154123042     -2.76661943775055      0.08695294325574
  H   1.15627299480238     -1.67699272392279     -1.12801954010667
  H   2.75488684335160     -1.70479931486817      0.71734866442673
  H   1.46778124267479     -1.42757572718908      1.91053724109361
  H   0.93508051404894      2.03659988611119      0.60820089618364
  H   0.69729312776704      1.15006084859346      2.11057773819396
  H   -1.77539682111568     -2.40566118574609     -0.90396067783880
  H   -3.84913697924418     -1.03105979040714     -0.84599723095427
  H   -1.62048596909892      2.22121700133254      0.87651628332713
