22
Coordinates from ORCA-job sd_inp/doublemontecarlogen3D414
  C   0.57089060497207     -0.31941931016201     -0.25485217390322
  C   0.28805324992675     -1.68450437817060     -0.29447094594000
  C   -0.93206057039750     -2.15207876944642      0.19360031259701
  C   -1.87193948788664     -1.25471411731137      0.71295300549669
  C   -1.58521454543835      0.10647659305282      0.74757120139155
  C   -0.35787932341514      0.58831154147256      0.26471029473019
  C   0.00658147735788      2.05165625587232      0.38538912852644
  C   -1.16730177633212      3.00387787507852      0.05924812407100
  O   -1.84860814517738      2.88642063747477     -0.92934051256391
  O   -1.32808440384873      3.98642620314777      0.95935260109423
  O   0.54410938037171      2.36896111393110      1.68669656016212
  C   -1.25972156490841     -3.62236544483781      0.17672146641445
  F   -2.39605468254530     -3.86949351735702     -0.51180004549387
  F   -0.27643674492695     -4.35620774742969     -0.38482449088626
  F   -1.45334796932981     -4.09518223304238      1.43022738930478
  H   1.52273942334968      0.04292961277352     -0.63314990810029
  H   1.00972753289651     -2.38307829630863     -0.70207571091394
  H   -2.82592397460069     -1.62002195535875      1.08019911521419
  H   -2.33130678755181      0.79888290159157      1.12756249263339
  H   0.79695503385623      2.28809873204641     -0.33651097640748
  H   -0.64537073715236      3.83586304693108      1.64519981429661
  H   0.23949401078037      1.69139125605226      2.30664325827629
