19
Coordinates from ORCA-job test_7_sl_inp/doublemontecarlogen3D363
  B   0.89523680780770      0.00320135096758      0.16171354754879
  C   0.05588427841798      0.41380325874578      1.41752206760630
  C   0.52291606700963      1.40175948737246      2.30176604215356
  C   -0.22019055666446      1.76560638343129      3.42348205845385
  C   -1.45144902711659      1.15101419837707      3.68340164713817
  C   -1.92929321159206      0.17126270242582      2.81621078182452
  C   -1.17959849534742     -0.19325066655285      1.69567469688138
  C   0.27330414189236      2.81954002576619      4.37620103779772
  F   1.47976605077566      3.31226107849820      4.02363659899574
  F   -0.58445483436219      3.86619447679728      4.44719206156631
  F   0.38889797228919      2.33593527063984      5.63693833173004
  O   0.41125035325417     -1.00701204422785     -0.63175071415815
  O   2.06764202929244      0.67611866219986     -0.07287935819991
  H   1.47429537157379      1.88523826741018      2.10908424256609
  H   -2.02673174110639      1.43998288973256      4.55818417485852
  H   -2.88387468190062     -0.30768813738063      3.01473156082975
  H   -1.55389440616750     -0.95977496579139      1.02309825955859
  H   0.95655420088000     -1.22782003557282     -1.39515239159590
  H   2.56424968106429      0.39068779716142     -0.84784464555541
