13
Coordinates from ORCA-job sd_inp/doublemontecarlogen3D400
  C   -1.65072517294144      0.00431346569244     -0.00080502266653
  C   -1.11974218443415     -1.24724782450047     -0.02449576371564
  N   0.25277263770928     -1.35339672263747     -0.05793652944281
  C   0.79429026812553     -0.16935479585201     -0.06983276567881
  S   -0.36145945803088      1.17822279944951     -0.04249380160464
  N   2.14421185109241      0.05653827095195     -0.17234883232819
  C   -1.93136623131217     -2.50848025434582     -0.00294394532254
  F   -1.70649000877692     -3.26221172852806     -1.09821386394150
  F   -1.63882977506428     -3.27013687558351      1.07151526267739
  F   -3.25408066167591     -2.22972134069417      0.03997347893483
  H   -2.68766776999000      0.30015688119901      0.04118854429171
  H   2.70254365835676     -0.77093690406246     -0.00771537347553
  H   2.51043284694178      0.89847502891105      0.24747861227226
