21
Coordinates from ORCA-job test_3_sl_inp/doublemontecarlogen3D286
  C   2.18974045356102      1.63197347419712      0.79196723234342
  C   1.08819346979849      0.78881357128871      0.65741362763651
  C   -0.04513776391281      1.19470274305488     -0.06623485261800
  C   -0.04234814863464      2.46595535418885     -0.65527556717613
  C   1.06564361507688      3.30961269626528     -0.52423664198969
  C   2.18461309635656      2.89649337859202      0.20038019854973
  C   1.06699704322534      4.65026163580407     -1.21277588931884
  F   1.55257069330990      4.55539629698449     -2.47258457759792
  F   -0.17796264991651      5.16654807012871     -1.30895869214134
  F   1.83458635144685      5.54842379578196     -0.56013133904140
  C   -1.22969840739125      0.26725951817371     -0.22522094009573
  C   -1.11362101432995     -0.77786996756798     -1.35028395485842
  O   -1.71267140691814     -1.82290300976756     -1.32697584529877
  O   -0.33322030083367     -0.44590406271700     -2.40492483324496
  H   3.05397422178319      1.30636552827903      1.36300168493546
  H   1.09966934286710     -0.19363698647070      1.12254618060207
  H   -0.91592465022527      2.81523600966813     -1.19855923544148
  H   3.03481251030821      3.56123749598118      0.30881141428482
  H   -2.13806113071591      0.84497143560920     -0.43716495685568
  H   -1.42403319764305     -0.29494647508259      0.69133185048940
  H   0.10655787278766      0.40300949760846     -2.23858486316306
