31
Coordinates from ORCA-job test_1_sl_inp/doublemontecarlogen3D250
  B   -0.02216178619384      1.78800820753541      0.07746988527606
  O   -1.06251993669839      1.05022987732023     -0.41861617153954
  C   -0.80170626636052     -0.34840890720191     -0.08662871086535
  C   0.76109276688475     -0.35135564489226      0.16024325388879
  O   1.01822776531408      1.03335688725594      0.54774637930180
  C   1.58326827538565     -0.60527439582354     -1.11023815734139
  C   1.23904579456488     -1.26430205478441      1.28784835479452
  C   -1.62293693275989     -0.65613254377887      1.17235331988076
  C   -1.27637407703286     -1.21647328975791     -1.25054963305094
  C   -0.01932634202708      3.35237431574286      0.10158149566156
  C   -1.15950696849259      4.08339045388109     -0.26481575151995
  C   -1.07609869610522      5.47143514061495     -0.21913442047967
  N   -0.00810572595864      6.16223253852541      0.13660410416419
  C   1.05424448893264      5.45432053990229      0.47513657916537
  C   1.12645170016182      4.06499211633449      0.48649380219313
  F   2.13602845757373      6.16212882543601      0.83058477154319
  F   -2.15153342378540      6.19655503471575     -0.55861321577391
  H   1.26389895392090      0.04535147858147     -1.92940898529099
  H   1.50371311361744     -1.64515991486683     -1.44110659411173
  H   2.63469250324530     -0.39103022333066     -0.89928945119869
  H   0.77736756134738     -1.00527107104779      2.24237858990299
  H   2.32298757039104     -1.17073068365651      1.40101277670491
  H   1.01217818753195     -2.31168640999628      1.06222430305747
  H   -1.30613983939036     -0.03788574815139      2.01717102020823
  H   -1.53891207691431     -1.70818323944016      1.46108298429346
  H   -2.67530155991419     -0.43805381831988      0.97023184494279
  H   -0.81493644910816     -0.91757925207995     -2.19348733383200
  H   -2.36054460206150     -1.12195531500708     -1.36060672102388
  H   -1.04603353590471     -2.27133390272955     -1.06722019413096
  H   -2.07717621724440      3.59716858199876     -0.57376490948080
  H   2.04044729708051      3.56379241702031      0.78203678466060
