16
Coordinates from ORCA-job sli_prashanth_inp/doublemontecarlogen3D517
  C   1.61093447746073     -0.66310187219076     -0.61330700637025
  C   2.61885253068079     -0.02413479621710     -0.00587434433133
  C   3.30341217824367     -0.40037875728938      1.24211950612014
  C   2.97738782425382     -1.55175024470559      1.98467229969179
  C   3.65261711232344     -1.86982867261802      3.15855267706911
  C   4.66948062449298     -1.02698263460666      3.60094402370652
  C   5.02410697433768      0.11928649214018      2.90071098814993
  C   4.33673737970820      0.42160686751458      1.72616502834083
  F   5.32652109527288     -1.33499681826583      4.73888464615834
  H   1.18903138609582     -0.28170870406545     -1.53759511336688
  H   1.16798990601687     -1.57599797466308     -0.22510742585599
  H   2.99774249176846      0.88687420459950     -0.46911428607498
  H   2.18624937229748     -2.21157247507932      1.64235439239756
  H   3.40577860714702     -2.75594715494853      3.73401658419683
  H   5.82148074404298      0.75291030717827      3.27448399534878
  H   4.60728729585713      1.31588223321720      1.17048403481960
