16
Coordinates from ORCA-job test_1_sl_inp/doublemontecarlogen3D236
  C   1.28069905557199     -0.48073575589773     -0.19337460576854
  C   0.22421833506381     -1.35852442310812      0.03368523668037
  C   -1.07861961586482     -0.92104816870062      0.23943038300748
  C   -1.30604098387556      0.45203245019872      0.20911894220397
  C   -0.30142073476923      1.39715413892728     -0.00618396065240
  C   0.97714259952857      0.87282584800377     -0.20422409816154
  F   1.98522608685996      1.75472209317008     -0.42563903820493
  C   -0.55229264108187      2.89259284760849     -0.05182366360220
  O   -0.19012317369478      3.48301121860804     -1.29101133163463
  F   -2.56650380483558      0.88659859096411      0.40774057571762
  F   0.47646622524999     -2.67898980401420      0.05377795640788
  H   2.29027519241902     -0.83642054938819     -0.35642564556306
  H   -1.88799695541062     -1.61891808927535      0.41390158837305
  H   -0.02496170852278      3.37221058104016      0.78739787837881
  H   -1.61900782755729      3.07906491347171      0.08269057788982
  H   0.76695995091919      3.38604410839185     -1.38295079507171
