12
Coordinates from ORCA-job test_7_sl_inp/doublemontecarlogen3D356
  C   0.99954465902930      0.81364231704154     -0.01247460906528
  C   1.08025103204050     -0.56505136586448     -0.00076198892783
  N   -0.19959685348448     -1.02820522445486      0.02027380260386
  N   -1.11212516258628     -0.03996962959440      0.02306245249922
  C   -0.38794210283715      1.07995886535096      0.00263224255795
  C   2.25434028597627     -1.48092733669915     -0.01252095880952
  F   2.25766169501345     -2.27573122879633     -1.10898505703141
  F   3.40560181737411     -0.78752398363549      0.00190805568849
  F   2.24939484322300     -2.31073537228463      1.05783859422571
  H   1.82223783060419      1.51160193453861     -0.03001595755663
  H   -0.50751690428799     -1.98908252404348      0.03675155412766
  H   -0.88714114006493      2.03944354844171     -0.00032813031225
