13
Coordinates from ORCA-job test_1_sl_inp/doublemontecarlogen3D239
  C   -1.38285197835938     -0.07502347925326      0.01530839212830
  C   -0.74409628686014      1.16907954555998     -0.00592447976777
  C   0.63806450699487      1.21706200233819     -0.04012153110801
  C   1.42764790809486      0.06079906771957     -0.05481310939256
  C   0.79541348403239     -1.18308908258987     -0.03363096987155
  C   -0.59516282384315     -1.22165893265071      0.00095725969517
  F   -1.19893971766999     -2.42843130878671      0.02137341754468
  O   2.78322566163394      0.13556837252213     -0.08892041901909
  F   1.30016780415631      2.40867044950264     -0.06131051665475
  H   -2.46287242867878     -0.15868197961170      0.04240962423594
  H   -1.30841792476235      2.09540592920092      0.00397083683163
  H   1.37954843165661     -2.09566867348684     -0.04406165745659
  H   3.02697336360481      1.07322808953565     -0.09939684716541
