17
Coordinates from ORCA-job sli_prashanth_inp/doublemontecarlogen3D536
  C   -1.00527599049593     -0.81488437861759      0.74607194556570
  C   -2.08582192824660     -0.04390621712988      0.30412674768406
  C   -1.84830394524326      0.91689067630165     -0.68886295735325
  C   -0.57300609481413      1.14925596122123     -1.20143034081731
  C   0.48394797812540      0.38582224113497     -0.73256208507167
  C   0.26520287583352     -0.60234726769762      0.23088608724563
  F   1.29900610383742     -1.33572107128795      0.65292242663584
  F   1.71940319552807      0.57008357315441     -1.20841873537314
  N   -2.95429639579571      1.66188463166443     -1.31601892212678
  O   -4.04667500687549      1.10351688468695     -1.37356719262090
  O   -2.69439563466329      2.77163030827029     -1.77676870237299
  C   -3.40273227944442     -0.29315899602808      0.98371156858086
  O   -3.82134059264232     -1.40032688755705      1.23573133627719
  O   -4.00060321921619      0.84725286901618      1.37586472132520
  H   -1.15614297189798     -1.57773147778679      1.50144749752073
  H   -0.41673298851508      1.90127562219559     -1.96468887453294
  H   -4.84669310547399      0.59411352845924      1.78308547943378
