18
Coordinates from ORCA-job srijon_inp/doublemontecarlogen3D468
  C   -1.55179680531636      0.87182048156897      0.85382146211786
  C   -0.15541938849169      0.85429043745551      0.83579490954486
  C   0.49631408050371     -0.31379931436626      0.47743500524271
  C   -0.19649283963885     -1.46746782741669      0.13001314172423
  C   -1.58685891086081     -1.44477860426768      0.14871384057064
  C   -2.28684805093811     -0.27608313910104      0.51085680734309
  N   -3.68361859970208     -0.30253236481964      0.56289755995946
  N   -4.44555644478149      0.88055562818690      0.51115195008999
  F   1.86676063177223     -0.33489849718693      0.45470133266001
  Cl  3.34682244976329      1.41928574586773     -1.83067152924993
  H   -2.06811251963920      1.78032920502977      1.14313398684084
  H   0.41825214987190      1.73668242157873      1.09962022907216
  H   0.34897732214193     -2.36214504316046     -0.15107865061685
  H   -2.14184661272358     -2.34015615375856     -0.11993318753992
  H   -4.11373640578910     -1.03448221088555      0.01362899875355
  H   -4.02804819855124      1.55622808922636     -0.13171326495297
  H   -4.46947321237112      1.30029832921390      1.43698677567840
  H   2.79396135475066      0.68078281683494     -0.92400936723812
