20
Coordinates from ORCA-job sd_inp/doublemontecarlogen3D391
  C   0.86691724511963      0.81500890240017      2.41084495113416
  C   0.75829440410530      0.05576025056069      3.56925541022920
  C   -0.50082081900737     -0.37875423899439      4.01362231639993
  C   -1.64721596849591     -0.02087144782524      3.29249399051718
  C   -1.54275222035849      0.73274539149373      2.12832079768548
  C   -0.28039456710976      1.15443601486416      1.67499891219308
  C   -0.07499940855111      1.96330797538913      0.44067060740563
  O   1.01832103238261      2.31171752526566      0.04478630358353
  C   -1.32263835361332      2.39179864110263     -0.37918214825094
  F   -0.97380419693852      3.08496415784748     -1.46034139648027
  F   -2.02702684030256      1.30714228368907     -0.77487848499944
  F   -2.13818102339352      3.15772300980811      0.37910846034081
  C   -0.69423255105135     -1.19047810933275      5.26551275169453
  O   -1.74541928553374     -1.23893770102870      5.85805127510318
  O   0.38106547290138     -1.88369964138760      5.71963887408338
  H   1.83113697897700      1.16419091590920      2.05713745049578
  H   1.65717022020023     -0.16075436663432      4.14149175706899
  H   -2.61337663860829     -0.34523161692878      3.66335226205862
  H   -2.44091174941195      0.98863925269608      1.58029692408475
  H   1.09215826868973     -1.87880719889433      5.06376898565240
