14
Coordinates from ORCA-job test_5_sl_inp/doublemontecarlogen3D330
  C   -1.27159854804146     -1.18279048744768      0.03031514138111
  C   -1.94650172731155      0.03890547398183      0.03712791218109
  C   -1.22355759952893      1.23838502910882      0.00043801500966
  C   0.17844333514473      1.22119676582137     -0.04278523020550
  C   0.82286621178448     -0.00479527789164     -0.04758540245219
  C   0.12314536299236     -1.21165626603561     -0.01225479890824
  F   2.16963043666248     -0.04097339247101     -0.08706293148683
  C   -1.94290410954560      2.53563432698407      0.00810605444228
  O   -1.40303952354986      3.62435663333074     -0.02273737185302
  H   -1.82699540848420     -2.11538013295968      0.05852255146836
  H   -3.03270533370875      0.06656502561282      0.07097146937159
  H   0.73626268648942      2.15084684760448     -0.07118900530689
  H   0.67410775276527     -2.14637450673420     -0.01831500467410
  H   -3.05163353566839      2.44725996109566      0.04513860103267
