11
Coordinates from ORCA-job sli_prashanth_inp/doublemontecarlogen3D553
  C   -1.41498207278717     -0.07727828248244     -0.02899910580260
  C   -0.77864667311055      1.15836527562512      0.00178597901087
  C   0.61673308330690      1.15504464345067      0.04344243818709
  N   1.37634581563483      0.08057691411574      0.05693421122742
  C   0.76217825225748     -1.10966735146331      0.02756323408705
  C   -0.62617683669439     -1.23078219742764     -0.01585762202812
  Cl  -1.36704422351860     -2.81687639825909     -0.05353133819811
  F   1.25335226943963      2.33439770533262      0.07357863202768
  H   -2.49679891661364     -0.14877500702000     -0.06251274251323
  H   -1.32864541699358      2.09222491763484     -0.00598785740183
  H   1.39439471907909     -1.99368021950650      0.03875417140377
