14
Coordinates from ORCA-job leia_inp/doublemontecarlogen3D184
  C   -1.91777022857425     -0.04177566537910     -0.09337296890396
  C   -1.26538608567731      1.19218713427207     -0.00837032236361
  C   0.12665105914285      1.25364743219598      0.07459740451678
  C   0.85958872928661      0.07221147217403      0.07232115427111
  C   0.23644668994030     -1.18436378353776     -0.01041207072029
  C   -1.16563204951145     -1.21277556377384     -0.09366532445365
  C   0.97458450256487     -2.46922073212620     -0.01245214593238
  O   2.17821047371870     -2.60971188966671      0.05797973343460
  F   2.19314534415266      0.15491886440521      0.15110185756774
  H   -3.00024434864026     -0.08575241410199     -0.15835368675518
  H   -1.84048286630443      2.11361968657742     -0.00682035304459
  H   0.65441252551651      2.19910861281976      0.14104496800089
  H   -1.65969357595660     -2.17969467018984     -0.15923887781380
  H   0.29996983034178     -3.35355848366903     -0.08702936780367
