25
Coordinates from ORCA-job ewa_inp/doublemontecarlogen3D125
  C   5.39513660763464     -1.27952422030420     -2.28282450457686
  N   4.76784259204491     -1.08801328303343     -0.95173066494860
  C   4.32222801113662     -2.16932092938791     -0.30410072804623
  C   3.77132289627124      1.44845073814538      1.28745435886796
  N   4.47329494965459      0.43618522535950      0.80563621048327
  C   4.62080065507731      0.20137383515101     -0.54756218622918
  Cl  4.20334835376983      1.55376347756598     -1.80116565379024
  C   5.43656696268327     -0.20269215967581      1.75721869277024
  F   2.00488035887740      1.21143059529746      5.12528582722064
  P   2.90110650457916     -0.10633790657977      5.15397712105407
  F   2.47373573652530     -0.38605758906500      6.63445115421283
  F   3.82387001407137     -1.41533791626730      5.16000865756296
  F   2.07180636652760     -0.71284272521161      3.96658406814906
  F   3.75228892640217      2.93894763676687     -3.07206423498831
  F   4.17915562578148      0.76308181144526      4.85148096640505
  H   5.83824470737468     -2.27402299331380     -2.31299873461382
  H   6.14951859323968     -0.51160708329156     -2.42999598598713
  H   4.63367027467355     -1.18496684408190     -3.05744421509057
  H   4.61938655138519     -3.14728955577202     -0.65156105734808
  H   3.60756572369812     -2.04479299149146      0.49398906962898
  H   3.91008853550294      1.71068857630607      2.32534127898562
  H   3.13137429513576      2.01018041847741      0.62436651769395
  H   4.96519024850952     -0.24349492474588      2.73707551072716
  H   6.32729466223379      0.42426482529825      1.80642965114478
  H   5.68830184720946     -1.20572601759153      1.42393888071240
