31
Coordinates from ORCA-job test_6_sl_inp/doublemontecarlogen3D35
  O   0.56094346625767      1.04817626814209      2.57361664847803
  C   1.59104666893542      1.55983542728406      1.89395946618000
  O   1.88055249312481      2.73828579764822      1.93574156163566
  C   2.39005158602291      0.58677770066703      1.06196387519621
  C   3.45156332951290      1.06377429484525      0.32904230358455
  C   4.23714300119180      0.19911089551543     -0.46529121718667
  C   3.92166814967881     -1.13229316540160     -0.48014183616796
  N   2.87838776063028     -1.63276137199487      0.24326168360875
  C   2.58922136688326     -3.08816086640173      0.20745696472531
  C   1.74951083473750     -3.50597393617479     -0.98305295215109
  C   2.32040929650602     -4.23951101571123     -2.02851834209638
  C   1.55254499771048     -4.63481084002762     -3.12468792073255
  C   0.20146386004735     -4.29213956038504     -3.18205489255234
  C   -0.37986318171468     -3.55661352940787     -2.14245007918790
  C   0.38839389591828     -3.16842218233927     -1.04870532280412
  C   -0.65357219408081     -4.76041990063699     -4.33092630394383
  F   0.08720456375401     -5.06730301154100     -5.41874212948796
  F   -1.35777275805804     -5.86893186801172     -4.00443131795420
  F   -1.55239533056248     -3.82167517637175     -4.70029696497415
  C   2.04542069140615     -0.81793650239594      1.02802833784822
  O   1.08090502542910     -1.33158781280222      1.63606730407615
  H   0.51451467566331      0.07405930605656      2.39076413786001
  H   3.66038412236026      2.12806342814684      0.38518144375013
  H   5.07325253898578      0.56396980863229     -1.04894643326911
  H   4.47693372220057     -1.85908489610215     -1.06280150791042
  H   2.07445702179319     -3.31391252791803      1.14220889128009
  H   3.55022688043642     -3.60870306786884      0.19981892800576
  H   3.37130215398928     -4.51595366324816     -1.98608974022091
  H   2.00101950495021     -5.20265996204722     -3.93241362713305
  H   -1.43044697642195     -3.28909767432805     -2.19252409178920
  H   -0.05801116728785     -2.60236039582164     -0.23692686666701
