18
Coordinates from ORCA-job ewa_inp/doublemontecarlogen3D146
  C   0.89649248371905      0.10041491219047      0.00364374511615
  C   2.39992162966650     -0.01629870780537      0.02721872487054
  C   3.05575690667015     -1.25801687494444      0.02760434690198
  C   4.45440558922628     -1.38491528717753      0.07162528744642
  C   5.19762390021956     -0.19716931377854      0.10396000294590
  C   4.59778086160267      1.05274556815433      0.08618011652157
  C   3.20789788054806      1.12803142768173      0.05453839060439
  F   6.53688921506858     -0.26837532239931      0.12123193336209
  C   5.20837440701190     -2.69343622717964      0.16873202497408
  O   6.02150664617478     -2.90622489916811      1.03059316101334
  O   4.95813633715400     -3.61410291868570     -0.79063729493757
  Cl  2.06559026390409     -2.72027145741056     -0.00615540986387
  H   0.44262823582345     -0.39690172056507      0.86749213613415
  H   0.47054592279908     -0.36542359987485     -0.89165353233815
  H   0.59490023874445      1.15061583083256      0.01759089879464
  H   5.22005642187287      1.94050704398195      0.10091373341433
  H   2.72974933573968      2.10329515735239      0.05035253201067
  H   4.25388372405481     -3.30938361120431     -1.38148079697065
