15
Coordinates from ORCA-job ewa_inp/doublemontecarlogen3D148
  C   -0.77277479825283     -1.91351470004672     -0.06011928803287
  C   -1.80936372506594     -0.98268055016139     -0.00430248574844
  C   -1.48201608550913      0.36553762068409      0.03178169508725
  C   -0.16552253686383      0.84408727219833      0.01902451814764
  C   0.84551229973274     -0.12974416869348     -0.03832929706944
  C   0.55777852256901     -1.49428498073256     -0.07470658624284
  Cl  2.53161449946714      0.36128181923205     -0.05972944671779
  C   0.08779652970454      2.31753534658977      0.05944846169298
  Cl  0.18738081537882      3.04420205003578     -1.62098237115880
  F   -2.48061369724333      1.27002512624441      0.09179748482935
  H   -1.00113046900383     -2.97441498038160     -0.09092609649832
  H   -2.85220460973727     -1.27889758287866      0.00988484142270
  H   1.36846434311517     -2.21244325320452     -0.11612818776924
  H   1.03511285954099      2.55320420455877      0.53973805473571
  H   -0.72911394783224      2.83917677655571      0.55363870332210
