23
Coordinates from ORCA-job test_2_sl_inp/doublemontecarlogen3D259
  C   -2.32169233646717     -4.85208953334210      5.99542567526781
  C   -2.42322741386875     -5.01771772785909      7.37375163361938
  C   -3.00837002489605     -4.00242229300225      8.12564038470027
  C   -3.49843857563778     -2.83408062800475      7.54446067809467
  C   -3.39608534217652     -2.68533815115874      6.16754330682415
  C   -2.80468719078731     -3.68660934118029      5.37447598077288
  C   -2.73206709935505     -3.46518934192603      3.90482641071138
  O   -3.21783858094013     -2.44515894461607      3.41265248338461
  C   -2.04609284422560     -4.50253112462752      3.02480991990342
  C   -1.78359153206305     -4.05188438444464      1.57439864763398
  C   -3.00419209333056     -4.09492529654800      0.64793847611523
  O   -3.09280729085761     -4.87316923521936     -0.27366022042773
  O   -3.97759352418097     -3.20637039222174      0.91512798144228
  F   -3.10375898507007     -4.15500794740662      9.45604252102603
  H   -1.86838326883210     -5.64402706230303      5.40900477403288
  H   -2.05998561946777     -5.91065467595764      7.87050365769726
  H   -3.94739255869884     -2.07163823664770      8.17189351922911
  H   -3.76964306387008     -1.79299932257129      5.67720136095521
  H   -2.64421711918013     -5.42447009163973      3.04251412429169
  H   -1.08916279299878     -4.76442192905875      3.49161411388037
  H   -1.04149328306408     -4.71579780988121      1.12801937668454
  H   -1.37111339766747     -3.03588505592419      1.58258670925674
  H   -3.74310606236408     -2.70072147445921      1.72387848490375
