16
Coordinates from ORCA-job test_1_sl_inp/doublemontecarlogen3D243
  C   0.98886196614051     -0.08024948219568     -0.15180652397530
  C   2.49125624021131     -0.03004491427244     -0.03599489689037
  C   3.23899824471274     -1.20276492420214     -0.10129814888775
  C   4.62971594115504     -1.25486265902058     -0.00673888278459
  C   5.29944744649332     -0.03850376372571      0.16320621738609
  C   4.60319613011475      1.15967541117298      0.23633796986294
  C   3.20885922593203      1.15989138892451      0.13742049365177
  F   6.64243209470974     -0.05489535102236      0.25397471614977
  O   5.32160309984921     -2.42200107856456     -0.07454298264011
  F   2.61003771596592     -2.40284352627144     -0.26959280734205
  H   0.54604376853002     -0.69987833505182      0.63585896164572
  H   0.67611677394799     -0.51209250876474     -1.10908728964212
  H   0.56232033513522      0.92306812884459     -0.07639587075405
  H   5.16291161649518      2.07913131925230      0.36967212905784
  H   2.66787339966626      2.09949569078834      0.19490653019687
  H   4.67571600094070     -3.13402539589124     -0.19261961503466
