18
Coordinates from ORCA-job test_4_sl_inp/doublemontecarlogen3D308
  C   -1.61671865112818     -1.32573877752592     -0.17452257513779
  C   -1.61054667988124     -2.71514210986023     -0.39966127179280
  C   -0.39623312267952     -3.42228195739882     -0.35129568321676
  C   0.78004613136286     -2.72966010758879     -0.08650968837881
  C   0.80607859752600     -1.35413180829666      0.12640411981806
  C   -0.41195937641289     -0.67710053590323      0.07423126105976
  O   -0.30865735809184      0.69248709090269      0.33436244880852
  C   -1.25988057218403      1.56098389060556     -0.08754715323558
  F   -2.42052350432447      1.42853362463967      0.59441757346730
  F   -0.79783811626721      2.79277892146214      0.12239942892150
  F   -1.54821244334174      1.42149619374551     -1.39337272603572
  Cl  2.29219382739295     -3.62351992937802     -0.02165028947888
  N   -2.79226020043963     -3.37432957855540     -0.71361425466008
  H   -2.55192582351427     -0.78109315038481     -0.19471115815232
  H   -0.37373431449877     -4.49306077717158     -0.52240410424331
  H   1.72490252214089     -0.81782435331013      0.32384305228217
  H   -3.64669602752191     -2.91876044033393     -0.42668723313804
  H   -2.80357488813698     -4.37004619564804     -0.54529174688720
