19
Coordinates from ORCA-job sli_prashanth_inp/doublemontecarlogen3D530
  C   1.95258451728646      0.65858676689399     -0.63416709001054
  C   1.89565426422506     -0.64851890752238     -0.15942417989738
  C   0.99726716432135     -0.98493059670639      0.86693633975119
  C   0.16613339149297      0.01887898890276      1.40399531205920
  C   0.22972064712861      1.31731286611968      0.92098488158989
  C   1.12455614381294      1.65083495995111     -0.10354024442970
  C   1.20247547396600      3.06979637666772     -0.57445973303912
  F   -0.02814753638013      3.59194911994209     -0.80568318405776
  F   1.78530121348691      3.88161911331304      0.34511323022159
  F   1.91526912155041      3.19529884129226     -1.71675123251969
  N   0.87005969180424     -2.28766012128060      1.34278735409826
  N   1.87700029753456     -3.21813883243719      1.04169902814231
  H   2.64694869575221      0.90879174678617     -1.42928663964969
  H   2.53445915961760     -1.42030213665344     -0.57061566003928
  H   -0.53567906687272     -0.22916686735604      2.19711075473105
  H   -0.42080911856721      2.07939946855079      1.33938303108421
  H   0.42147707232237     -2.36864850891114      2.24894074707999
  H   1.45419623861035     -4.11695417251275      0.83462629691199
  H   2.53627262890797     -3.32578810503969      1.81125098797346
