19
Coordinates from ORCA-job test_3_sl_inp/doublemontecarlogen3D289
  C   1.45254523887680     -0.61561550432473      0.46223648420862
  C   0.63671691052917     -1.74672301735428      0.39098286255935
  C   -0.70731226561011     -1.58087261972203      0.04895891528474
  C   -1.23904566179862     -0.31835933404046     -0.22018141476661
  C   -0.41410187815898      0.81263182314451     -0.15182178318788
  C   0.93964598833667      0.65006789892890      0.19696701855207
  N   -0.88788194531557      2.09176809668453     -0.46531776889552
  N   -2.28169860798473      2.28931670496693     -0.46027399918813
  C   -1.60425994634620     -2.78196665641349     -0.09353292236505
  F   -1.73447079149181     -3.15640230664270     -1.38945537934666
  F   -1.13201652317507     -3.85613855585988      0.57886662378348
  F   -2.85474910222545     -2.53950424881160      0.36450077511024
  H   2.49936707702741     -0.72038739242856      0.73316876852175
  H   1.03077755831698     -2.73326037509725      0.60485413056146
  H   -2.28390852723607     -0.19384365920084     -0.47450380900793
  H   1.58698328005512      1.52266318233543      0.25586636677312
  H   -0.32894511802994      2.84133172833159     -0.06940725060353
  H   -2.52711512734768      2.93293131334186     -1.20528084320751
  H   -2.60865055842190      2.66649292216210      0.42867322521398
