19
Coordinates from ORCA-job leia_inp/doublemontecarlogen3D198
  C   -2.01952491956478      0.37397195206851     -0.70312105219130
  C   -1.70338275446371     -0.94218518588974     -0.37971518527328
  C   -0.68192599954069     -1.25610713223152      0.52517295194948
  C   0.03247754759541     -0.19007964566439      1.10870699805475
  C   -0.27328764650601      1.13283060093359      0.79415591153627
  C   -1.29975242134246      1.41175672026330     -0.10980016304983
  C   -1.59647407429589      2.85440412742306     -0.43347305703237
  F   -0.55748815674589      3.43876343612965     -1.07298521619731
  F   -2.68351987765300      2.98716167255902     -1.21754786863571
  F   -1.81314592323337      3.57385605995762      0.69161982935857
  O   1.03735167277462     -0.48850390005037      1.99624975562209
  C   -0.44615676947005     -2.72589216583920      0.79221584315648
  O   -1.09680755848505     -3.57888112506788      0.23024130315693
  O   0.50757747580849     -3.06497079753883      1.67857158617106
  H   -2.81583662055915      0.59631856393694     -1.40300574391496
  H   -2.24248925873652     -1.77440132512371     -0.81887584939042
  H   0.28307963092087      1.94487086120785      1.25578882741725
  H   1.44656426183910      0.31612165951950      2.33963784487994
  H   0.94405139165808     -2.27217437659341      2.03705328438236
