18
Coordinates from ORCA-job test_6_sl_inp/doublemontecarlogen3D348
  C   -1.90235590824093      0.08674153909387      0.04649189895068
  C   -1.24367760532181     -1.13799696299062      0.01165643141731
  C   0.15220110183910     -1.20631093155078     -0.05626274001489
  C   0.90876749209805     -0.03137398155268     -0.09147691062150
  C   0.26718184736416      1.21345119095980     -0.05823719905729
  C   -1.11826157750855      1.23945653876890      0.01033112756509
  N   -1.79333742188223      2.55407083904743      0.04546433955108
  O   -1.08527606690097      3.55815335962932      0.00813241152249
  O   -3.02102240539375      2.55727747568990      0.10939987123706
  O   2.26531915367010     -0.02395954159143     -0.15900533470435
  C   -2.01831730142538     -2.43254253835778      0.04380904800496
  F   -1.74201788652235     -3.18931937014935     -1.04260913671446
  F   -1.68863630933926     -3.17263379594938      1.12657634187947
  F   -3.34837675086052     -2.22998070260997      0.07601449682551
  H   -2.97958121188578      0.15901734966328      0.09870959391512
  H   0.64441463855922     -2.17515781778508     -0.08388338074570
  H   0.83855924875038      2.13221707060039     -0.08602481982523
  H   2.60002696300052     -0.93045972091582     -0.17881603918536
