26
Coordinates from ORCA-job leia_inp/doublemontecarlogen3D21
  C   1.81939769710095      2.19727684201013      2.34493594301400
  C   1.59872325435814      1.01085593936268      1.77141802787699
  C   0.16988477416179      0.96814548758031      1.31659874014963
  O   -0.39516223181133      0.06196416915544      0.70698934979694
  N   -0.42272306850791      2.14532859427031      1.71078077994087
  C   0.54480155873002      2.99236773308758      2.29087870261498
  O   0.35089211850945      4.12483153131446      2.67149298570237
  C   -1.71268227268521      2.63009633617422      1.22298222033028
  C   -1.74293722718139      2.73178933776232     -0.31511637064550
  N   -0.56151013959378      3.42189932303113     -0.82412452168220
  C   0.47854137106036     -0.33346119571532     -2.48095728323644
  O   -0.03028451927499      0.76502934545021     -2.49647387653585
  C   1.08332531530464     -0.96903885548256     -3.75408243719858
  F   2.42633308189712     -1.01342643264016     -3.64988780980733
  F   0.63359245062384     -2.22334004612300     -3.92913630134632
  F   0.76592833754073     -0.24643135702258     -4.83285338977162
  O   0.62963661908569     -1.14180141536449     -1.44656566736301
  H   2.72307770654418      2.59021169183280      2.79181244221540
  H   2.27510333100231      0.17841201359679      1.62603616523776
  H   -1.84969560067338      3.60822442631767      1.69135364344520
  H   -2.50585146086284      1.96353119434696      1.57635519687213
  H   -2.70234659688053      3.19878291824269     -0.59196493135947
  H   -1.74667378349227      1.72265279176152     -0.73161481174137
  H   -0.71842120350427      4.41943645627840     -0.92396042122690
  H   -0.30276185763037      3.04272092182480     -1.72871346462108
  H   0.24823234617907     -0.72538775105242     -0.62443291066086
