14
Coordinates from ORCA-job ewa_inp/doublemontecarlogen3D154
  C   1.07631048182888      0.00538994864424      0.09682429538778
  C   2.58296388349268      0.02448022709715      0.03247062914427
  C   3.29473324919311      1.22344736507212     -0.00157704874114
  C   4.68737751904010      1.15328137005961     -0.06444304307296
  N   5.40423564424110      0.05208478259797     -0.09553013501707
  C   4.71339012142227     -1.10138095070598     -0.06284420461470
  C   3.32674738932313     -1.16841720992700      0.00057136159988
  F   5.37185052902354      2.30978256364893     -0.09435682569832
  H   0.66444316412972      1.01471509440313      0.17689031577887
  H   0.72776904517020     -0.57464343842874      0.95851925441041
  H   0.65318728521211     -0.46340600940689     -0.79910856835545
  H   2.80007965481424      2.18857021549465      0.02049455110988
  H   5.30900853549063     -2.01177740989341     -0.08840793762432
  H   2.82919349761827     -2.13352654865578      0.02589735569288
