19
Coordinates from ORCA-job sd_inp/doublemontecarlogen3D390
  C   -0.44540079786300     -2.55716358576575      0.07045715313435
  C   -1.35542150701882     -3.16388892746216      0.93401118823777
  C   -2.40489637773653     -2.41331798404338      1.46260651428924
  C   -2.57657357463525     -1.06257874899402      1.14861404275276
  C   -1.66840412546449     -0.45732454273001      0.28948632825520
  C   -0.60772121664436     -1.20241156356451     -0.23678683429378
  O   0.23072052851767     -0.47463842520772     -1.06587273137181
  C   1.32970232837587     -1.03978751692247     -1.64461491881543
  F   1.93897035394510     -0.08676098642628     -2.34004121182308
  F   2.18861035358017     -1.52990564763791     -0.73275962598742
  F   1.00306179135930     -2.04509127167966     -2.47616504563993
  S   -3.56171616739811     -3.20290092370020      2.56637775076957
  O   -4.81621179107358     -2.46053495849846      2.56400922727281
  O   -3.50532259333096     -4.64626330191180      2.37152126443113
  Cl  -2.65322720304993     -2.82538235489044      4.46304048483595
  H   0.36687947840758     -3.13724493298110     -0.34584657597945
  H   -1.25418696174407     -4.21332434065600      1.18730489155860
  H   -3.40770350504045     -0.50351330574982      1.56366529408127
  H   -1.76301901318614      0.58758331882170      0.01555280429224
