21
Coordinates from ORCA-job sd_inp/doublemontecarlogen3D379
  C   4.39731278639266     -0.37512288436896      0.65585743788437
  C   5.78775113888244     -0.09524452583792      0.08815075172313
  C   5.79836068417598      0.02174208565608     -1.43242154820816
  O   4.77051575328347     -0.10773149148968     -2.08150882943735
  C   7.09773150063011      0.29898465895113     -2.12601315076479
  C   7.08100066996060      0.39825900578929     -3.52724555735160
  C   8.26127038796352      0.65454911968547     -4.19166414356075
  C   9.48735599871334      0.82390535465606     -3.53588525746394
  C   9.47824242113993      0.71972062497788     -2.14034360152923
  C   8.31108895047601      0.46190152566434     -1.43785520578356
  F   10.64030990678961      0.87739836741608     -1.48276851295125
  O   10.63682150104479      1.07699947945407     -4.20090994476464
  F   8.30124817999590      0.75912475540215     -5.54677744290481
  H   4.43689248225682     -0.44930693736665      1.74675711605989
  H   3.99307313740799     -1.30979133989790      0.25834791084678
  H   3.69812331548733      0.42077218388058      0.38627986806222
  H   6.49404448920634     -0.88594252404496      0.37749446702689
  H   6.20003468907072      0.83268881183521      0.50870611826517
  H   6.14845726501848      0.27426992062067     -4.06544798014342
  H   8.37492206285542      0.39380388605393     -0.35832577911307
  H   10.42720267924851      1.10976992296311     -5.14671671589185
