18
Coordinates from ORCA-job raina_inp/doublemontecarlogen3D234
  C   1.84822488480384     -0.33587879774819      0.73694355894557
  C   0.88414753486147     -1.34391455989468      0.72537508570265
  C   -0.42235957775936     -1.11157075582440      0.27407946818096
  C   -0.70644897069369      0.18438073359045     -0.15712310627695
  C   0.21218843512257      1.22238653423706     -0.16746710899954
  C   1.49533432954308      0.93179530748516      0.28656466209700
  F   2.41624216216815      1.91180665466131      0.28871787771979
  F   -1.97767907729848      0.45046010518681     -0.59013696271861
  C   -1.47589874555476     -2.19995538530231      0.25293117061792
  C   -2.45279611255397     -2.13979561830734      1.43928702845174
  O   -2.53155276233488     -3.00543427033007      2.27385138025449
  O   -3.24461154155980     -1.04381914204512      1.49547637463863
  H   2.85888900821508     -0.51932215325909      1.08361044273552
  H   1.14851700281951     -2.33859487133243      1.07205099165247
  H   -0.05846010611817      2.21299636862085     -0.51226408620619
  H   -1.00106157785112     -3.18084748596407      0.29250388094596
  H   -2.05568384994084     -2.14051260749338     -0.67660243230475
  H   -3.05776103586864     -0.44609005628053      0.75403177456336
