18
Coordinates from ORCA-job sli_prashanth_inp/doublemontecarlogen3D505
  C   -0.42579003416519      1.24306196872644      0.09875974548664
  C   0.87870385958437      0.84837019500461     -0.18560520940325
  C   1.14348998090605     -0.50893374919199     -0.33135867568640
  C   0.14502031073682     -1.47344123072140     -0.20380420970720
  C   -1.15123516657415     -1.06289306089065      0.08074199749370
  C   -1.46467206413417      0.30286926544458      0.23995887481806
  C   -2.81244632462091      0.77692204693441      0.54560121120175
  C   -3.93049369575871      0.04621252964356      0.74115122433783
  C   -5.20623281952222      0.69957475717707      1.04602990132757
  O   -6.25411743306755      0.10861788044554      1.23959323114534
  F   2.39991702102484     -0.90638405468939     -0.60364572097652
  H   -0.64769372507654      2.30052657604589      0.21608136070038
  H   1.68307795558572      1.56783935406971     -0.29409294730009
  H   0.39653464793289     -2.52131125519457     -0.32779079266532
  H   -1.92972348559885     -1.81236147264995      0.18014025341318
  H   -2.91052876755648      1.86121099204922      0.62582935339623
  H   -3.94856954613406     -1.03925062338980      0.68854029448003
  H   -5.15730071356185      1.81270988118673      1.09269010793807
