14
Coordinates from ORCA-job raina_inp/doublemontecarlogen3D233
  C   1.47846620476140     -1.06928843805398     -0.02947845739394
  C   0.37710839515622     -1.87024275928828     -0.32856042857547
  C   -0.91201982751425     -1.32773866397709     -0.38281419666686
  C   -1.06202668906896      0.04422019518721     -0.12963234174057
  C   0.01298624260340      0.86615597107044      0.17050823264529
  C   1.27753754600415      0.28504943546700      0.21576798050974
  F   2.33437010226006      1.06634254064407      0.50787013246166
  F   -2.30328228175186      0.56637020545456     -0.18365116929140
  N   -2.00428580184729     -2.13889135107559     -0.68045424004266
  C   -3.20571450570274     -1.98745066461385     -0.79226600990519
  O   -4.37185790405697     -2.00358454640489     -0.93944383816032
  H   2.48054021331154     -1.48015958720116      0.01564751646405
  H   0.49988703417788     -2.92989971666263     -0.52408599967155
  H   -0.13131872833258      1.92255737945421      0.36248281936722
