17
Coordinates from ORCA-job ewa_inp/doublemontecarlogen3D159
  C   -1.56402556899546      1.62691239038084      0.27070949142648
  C   -0.20362088964938      1.92722038466466      0.18418598499814
  C   0.68754663653280      0.92946999082052     -0.17560877934425
  C   0.25804345745400     -0.38213271666746     -0.45340357069330
  C   -1.10683957246520     -0.67050467560856     -0.36029340985486
  C   -2.01032574685763      0.33149069646013     -0.00066049165032
  C   -3.47902647860565      0.00032101384866      0.05034328667221
  F   -3.99978224637782     -0.13543258487542     -1.19050018625769
  F   -3.70172630706284     -1.16567903112777      0.69611663713759
  F   -4.18986149481656      0.95872760954300      0.68113071028837
  N   1.16294639392456     -1.36138280211119     -0.80590146047230
  C   2.32410873394040     -1.60879874783319     -1.01352794200310
  S   3.80094614982025     -2.07899712855484     -1.32072055783202
  F   1.99878886031043      1.19963319686030     -0.26418678811995
  H   -2.27398110477062      2.39487181288796      0.55398155334255
  H   0.17478133544138      2.92184875782397      0.39301866870726
  H   -1.44350215782265     -1.68054816651160     -0.56557314634480
