23
Coordinates from ORCA-job leia_inp/doublemontecarlogen3D217
  N   3.51833806813796     -3.40753313196596     -1.21907422032373
  C   2.96763812683003     -2.19471390971547     -0.59584731657196
  C   1.60722404411210     -1.68916003362450     -1.13224482080261
  C   0.50326683948175     -2.72414524178324     -1.10280704427490
  C   -0.29887233631958     -2.93341923323751      0.03219734041076
  C   -1.31417514937695     -3.88906234948192      0.02809873622896
  C   -1.55916500300205     -4.66370263426883     -1.10945488378049
  C   -0.77042065457024     -4.46710079124557     -2.23355125673024
  F   -0.96989520059309     -5.19169426055695     -3.34914429369675
  C   0.24834917757294     -3.51451035767433     -2.22456821906956
  F   0.99537682359505     -3.36492563925791     -3.34416030895788
  C   2.93535044621489     -2.39624549551764      0.93828535570244
  O   3.73946030861910     -3.37783587009192      1.36226614991992
  O   2.27983000827639     -1.70342344600952      1.68452923497036
  H   3.97146951530808     -3.19728093418224     -2.10306756505950
  H   2.77573863843861     -4.07472318117837     -1.41878687832248
  H   3.70072595683509     -1.39241672488338     -0.75468569539813
  H   1.75123287618709     -1.33673040206994     -2.15772939419349
  H   1.31668889455181     -0.83242468362506     -0.51867943790308
  H   -0.10693226089985     -2.33720133835907      0.91803310870130
  H   -1.92398741172282     -4.03320330497080      0.91435890576143
  H   -2.34477131900726     -5.41115494767713     -1.14117074229000
  H   4.09924961133094     -3.77980208862270      0.53461324567962
