14
Coordinates from ORCA-job test_6_sl_inp/doublemontecarlogen3D347
  C   -1.32506185143641     -1.15346227858862      0.06509749499661
  C   0.03950377004099     -1.26978577970705     -0.17433241303667
  C   0.77212814458702     -0.09586342398736     -0.27913420406508
  C   0.17166172837274      1.16135665153221     -0.14923207287130
  N   -1.14739717476641      1.24575772350102      0.08055224908255
  C   -1.86836727783945      0.13162116983528      0.18329238007358
  C   0.89659137466398      2.49947164821034     -0.24503451830884
  O   0.31551101732504      3.54538688889946     -0.12168347429163
  O   2.22842583933464      2.46445784841584     -0.47512869242364
  F   2.11200332826056     -0.21082798387937     -0.51619637847179
  H   -1.95277141296349     -2.03398013054604      0.15785250454951
  H   0.53796298583334     -2.22765133692041     -0.27937363191228
  H   -2.93195459953728      0.26537722382437      0.36935985893896
  H   2.54772412812472      1.55236177941034     -0.55016910225996
