16
Coordinates from ORCA-job test_4_sl_inp/doublemontecarlogen3D305
  C   2.48839617204218      0.84399852697662     -0.00393228201860
  C   1.26110991816966      1.49914404807516     -0.00144407168342
  C   0.05979701756448      0.77071841680659      0.00034245077148
  C   0.11485023286762     -0.63860095492916     -0.00023468659940
  C   1.34077644063939     -1.29533500001472     -0.00273497139911
  C   2.52331477708654     -0.55083312557996     -0.00465144912919
  C   3.83661446897346     -1.29568321888835     -0.00866168947968
  F   3.94384574079239     -2.08555029578483     -1.09864971890598
  F   4.89110915897258     -0.45710162401997     -0.00372011944004
  F   3.94358932355043     -2.09815436588017      1.07206442614116
  Cl  -1.35388646705905     -1.57630373603004      0.00225460179802
  C   -1.18860485265802      1.47362909948005      0.00268108872860
  N   -2.18195077487963      2.07808480381781      0.00454499921462
  H   3.41212074965964      1.40998095884051     -0.00524626009197
  H   1.21667541293340      2.58282284177710     -0.00086011598039
  H   1.36989268134492     -2.37913637464664     -0.00303220192610
