21
Coordinates from ORCA-job sd_inp/doublemontecarlogen3D374
  C   0.95910960727027      0.71173271409333      1.07502384459356
  C   0.01508636155079     -0.28194584372898      1.34914071944566
  C   -1.26132729998755     -0.19825430330449      0.77663395719882
  C   -1.57690964341270      0.85800573315140     -0.07614872724334
  C   -0.62519718948057      1.83880647205012     -0.36708019491990
  C   0.64111148515547      1.76007542936564      0.21114910735078
  C   1.69713277760334      2.78911232261071     -0.11267948919946
  F   2.60708628784819      2.29688539543221     -0.98144897341345
  F   1.16290090002108      3.89464823831767     -0.67101106108880
  F   2.36858110879734      3.16487498621950      0.99491262963685
  C   -2.93877940387670      0.95264942784689     -0.71924448501423
  F   -2.86518357539988      0.72023736108021     -2.04802623043297
  F   -3.80583500543428      0.05773040572690     -0.19964573490893
  F   -3.47225815157705      2.18205391264256     -0.56323173373029
  C   0.42335946170429     -1.37511919566258      2.29938028747751
  O   1.35906757915568     -1.26367814456232      3.05406210600689
  O   -0.31129961573861     -2.51530726652713      2.28131845681435
  H   1.93132602481447      0.65253251218169      1.55214132426324
  H   -2.03542152962535     -0.92140516257946      1.01339565839399
  H   -0.87327913594627      2.66456669317002     -1.02429013062722
  H   -0.91178104344195     -2.52947168752390      1.52321866939695
