28
Coordinates from ORCA-job test_5_sl_inp/doublemontecarlogen3D33
  C   0.54995279310614      0.89872234597012      0.70305344948111
  C   1.78593153880481      0.06200915469490      0.36349554862998
  C   3.00125414925741      0.32732963765861      1.26761587291807
  C   2.76506394649855     -0.08861201617628      2.71384433645507
  C   2.92756566809490     -1.42898519690252      3.09266355455206
  C   2.69270264828550     -1.82404034944726      4.40825272327310
  C   2.29311171796561     -0.89198094331071      5.37079741429420
  C   2.13615768567792      0.43965298200518      4.99927761339616
  C   2.37388597139458      0.84052599235746      3.67940602370504
  C   1.70865989361776      1.47589435956094      6.00537241483768
  F   0.50269054960734      2.00010545410973      5.68802419204394
  F   1.61413045004115      0.97158568880268      7.25258438845144
  F   2.58285910659529      2.50735209742311      6.04767230797373
  C   2.81195272602168     -3.27362089424212      4.80328082897514
  F   3.62213049146184     -3.96120897936600      3.97124580197290
  F   3.30237890320691     -3.40818053203211      6.05600083764189
  F   1.60644470102586     -3.88723677622045      4.78568801316041
  O   4.08133289571816     -0.39878962344006      0.68563365695808
  H   -0.26074900651776      0.68749352558184     -0.00079707465075
  H   0.76501864410612      1.97228681450315      0.64539858647702
  H   0.17780977617383      0.68592868489058      1.71029626521063
  H   2.11089173369234      0.26516299295577     -0.66342304789424
  H   1.54969955337810     -1.00802813265936      0.41254024237808
  H   3.21302658642760      1.40991572784294      1.25116128074748
  H   3.25745839521740     -2.15125983845576      2.35396475432558
  H   2.12381295591815     -1.19799154523730      6.39608090094245
  H   2.26285765583725      1.88738474721940      3.40966102325271
  H   4.87058786938550     -0.24771537808648      1.22328809049095
