19
Coordinates from ORCA-job srijon_inp/doublemontecarlogen3D482
  C   2.75922849352723      0.30055079616965     -1.47958352235288
  C   2.61842602486245     -0.06356244534256     -0.01759781708348
  C   1.86838241444172     -1.11459012549482      0.35051237071209
  C   3.34618097444591      0.77255037639516      0.97583453208542
  C   2.88600856519658      0.90104510808589      2.30084259295136
  C   3.56882770404379      1.66879887112422      3.24004407631303
  C   4.72835980037779      2.33099172642771      2.84912880261582
  C   5.21090838248083      2.24755639630783      1.54960102925245
  C   4.51295527793745      1.47450567621486      0.62206759009033
  F   5.39282001536534      3.08367989644885      3.75126645054501
  H   2.09217226458325     -0.30537847370690     -2.09776916999770
  H   3.78188023182828      0.13251139549858     -1.84004226615183
  H   2.52912524128438      1.35813340627109     -1.65366445841707
  H   1.32388323389975     -1.70000726863666     -0.38433794940979
  H   1.78652231198726     -1.43839448557290      1.38321787332937
  H   1.96324605608324      0.41082741753035      2.59398016458763
  H   3.20947951673733      1.77255700073336      4.25859564474745
  H   6.11553669036881      2.78158599212423      1.27830591588031
  H   4.89733680054860      1.41120873942206     -0.39044185969751
