18
Coordinates from ORCA-job ewa_inp/doublemontecarlogen3D158
  C   -1.48325643394189      1.25884953732506     -0.20665954387478
  C   -0.10552268144104      1.09879423578923     -0.33574322889280
  C   0.43743029822673     -0.16427490774303     -0.15313569672206
  C   -0.33085302113298     -1.29223862437500      0.15478226431857
  C   -1.71249816784072     -1.10137012210738      0.27919076858306
  C   -2.28599676967039      0.15665299793964      0.10195208621591
  C   -3.78009500388645      0.30292504645232      0.24261408334556
  F   -4.43676139797225     -0.42568947617113     -0.68547028948966
  F   -4.20502041646209     -0.12720365768818      1.45002996077218
  F   -4.17405784289849      1.58741984610776      0.10412442479561
  C   0.19140892856989     -2.69433591716416      0.36548059554499
  O   -0.55387222399077     -3.60933218433774      0.62787422445962
  O   1.51772792399694     -2.89701761392453      0.25108931015683
  F   1.79019342210581     -0.28464286620402     -0.28549547956461
  H   -1.93287962227100      2.23543503855419     -0.34327627659147
  H   0.54918170805641      1.92992308686338     -0.57294525650211
  H   -2.31529385894303     -1.97077882033278      0.51986381792308
  H   1.97777515949534     -2.06955559898362      0.04025423552207
