18
Coordinates from ORCA-job test_7_sl_inp/doublemontecarlogen3D359
  C   1.40523803396053     -0.21687190953042     -0.01488251665052
  C   0.53174261067664     -1.30380867646575     -0.04130158425773
  C   -0.85052838899906     -1.10132703504950      0.03949789270359
  C   -1.37034559536769      0.18808708190956      0.14751962379723
  C   -0.47493514994004      1.25613282573450      0.17480880558204
  C   0.90662964814079      1.08180092278032      0.09552191455204
  S   -1.13108092820305      2.92006390237395      0.27890434757598
  O   -0.12585603729496      3.86210511277498     -0.19596784941187
  O   -2.50213480291935      2.92458132285511     -0.21298229326645
  Cl  -1.25205355990566      3.17996030076450      2.39047967577347
  C   -1.77793158087875     -2.29200537887162      0.04820747691133
  F   -3.02036146410426     -1.95931680293811     -0.35414572138881
  F   -1.32578970416841     -3.26998683217314     -0.76538120870823
  F   -1.88150112302556     -2.82176131725616      1.28641398938347
  H   2.47576159898717     -0.37894153245656     -0.08806979185123
  H   0.91880848580390     -2.31288234132762     -0.13726398438028
  H   -2.43966112597040      0.35899266169158      0.19166805426860
  H   1.56614908320817      1.94244769518438      0.10642316936739
