17
Coordinates from ORCA-job leia_inp/doublemontecarlogen3D171
  C   -1.49441295829161      1.28926655833132      0.16787392571932
  C   -0.17199099999279      1.08777990994801     -0.21038175582755
  C   0.26865146011954     -0.21107647466986     -0.43896208299872
  C   -0.55154614407043     -1.33791368344426     -0.31089393673012
  C   -1.87993054977434     -1.11625377412604      0.07340345904690
  C   -2.32749405031925      0.17747938092138      0.30475255042598
  N   -3.73019486521338      0.38798786162151      0.70929821120424
  O   -4.09509272398070      1.54888059245310      0.89109388128372
  O   -4.43882903916082     -0.60651231994814      0.83794009565759
  C   -0.14058733975754     -2.77433807633419     -0.55048828196830
  O   -0.92635283762908     -3.68052848336548     -0.40724506583539
  O   1.12861032122290     -3.01204158915262     -0.93094168384741
  F   1.57060842982083     -0.36521417174171     -0.80526541589230
  H   -1.88691049823774      2.28052654791202      0.35735904194089
  H   0.52010838564346      1.91354692502574     -0.33102193667815
  H   -2.54285763593967     -1.96564144963445      0.18454469743305
  H   1.63327104556062     -2.18692775379632     -0.99913570293375
