20
Coordinates from ORCA-job sd_inp/doublemontecarlogen3D377
  C   1.83946285741511     -0.24944567134518      0.28115736479262
  C   0.92749538364634     -1.24829433885467     -0.05902071578040
  C   -0.20816595131948     -0.95340375404319     -0.81340763694110
  C   -0.44236100973988      0.36103729264492     -1.23136195728549
  C   0.46669047373280      1.37286273457823     -0.89092580668520
  C   1.59974028536506      1.05936022842799     -0.14223181870804
  C   2.59560475836951      2.15316531859980      0.15753875555001
  F   3.36502953835489      2.42241240087169     -0.92057688900286
  F   1.97548853038606      3.30576380188156      0.49379669879956
  F   3.42205606099876      1.81911674652984      1.16865523122984
  N   -1.58939883576960      0.61675967339636     -1.98034863850920
  C   -2.13978006590799      1.54519764187618     -2.53273340171503
  O   -2.77599038298694      2.35281533764680     -3.10312978712243
  C   1.13451795025811     -2.67081391281512      0.40064241413363
  F   1.03875335903014     -3.53681609257328     -0.63199886061024
  F   2.34156820502882     -2.84732784508296      0.97395838557823
  F   0.19854862992183     -3.03522875322267      1.30461804671182
  H   2.71891016243790     -0.48470007356724      0.86660500297744
  H   -0.91497004964089     -1.72976481916730     -1.08437708912835
  H   0.28560010041943      2.39565408421823     -1.20499929828480
