23
Coordinates from ORCA-job test_2_sl_inp/doublemontecarlogen3D258
  C   0.41890484791412     -2.57685587582841     -1.11838466736077
  C   1.66795470904827     -2.88383128580847     -1.64194896879193
  C   2.03122433555638     -2.32776017242320     -2.86749614346656
  C   1.18415022606247     -1.48367575070088     -3.58080656609135
  C   -0.06721947181963     -1.18946363631010     -3.04655931213167
  C   -0.46611924662223     -1.72880366837917     -1.81042653983404
  C   -1.78150354839363     -1.42638021267369     -1.18369489816316
  O   -2.05423645102057     -1.88865077875223     -0.07414168937733
  C   -2.78077223275917     -0.54825090716175     -1.92682148999177
  C   -4.19215679672089     -0.50448574367941     -1.30876526691623
  C   -4.33332965589510      0.40037275279267     -0.07923679387749
  O   -4.99522169232531      1.41268223178236     -0.08939203639512
  O   -3.67655511081548     -0.00020225098089      1.02396745863992
  F   3.24026508880558     -2.61445266561820     -3.37639427080200
  H   0.10200038272911     -2.98416617271104     -0.16450142783062
  H   2.36256615333942     -3.53659036893148     -1.12439643991578
  H   1.51115444240539     -1.07316727551638     -4.52984590260828
  H   -0.72617190823622     -0.52846453147922     -3.59926113658588
  H   -2.85584168007662     -0.91682214383966     -2.95693673254893
  H   -2.36164370223605      0.46446526619389     -2.00753855952832
  H   -4.50205932085475     -1.52320881505519     -1.04691022316737
  H   -4.89147675140690     -0.11739038024550     -2.05155079418737
  H   -3.17072261667818     -0.81741761467403      0.82207240093204
