14
Coordinates from ORCA-job srijon_inp/doublemontecarlogen3D452
  C   0.50525186810055     -1.45097927722355     -0.12195225300572
  C   -0.81582430904985     -1.87706305044123     -0.10201232700836
  C   -1.86378174344299     -0.96090114719394      0.02950951995851
  C   -1.57279177016438      0.40766153456233      0.14115235462947
  C   -0.25202134492908      0.84864457629333      0.12059414896630
  C   0.77496699110896     -0.08310388991511     -0.00952589992670
  Cl  2.43049362308770      0.47311478281843     -0.03205799946264
  F   -2.52252624945418      1.33212746051095      0.26733766689709
  N   -3.23770874885391     -1.48063632246083      0.04558190098407
  O   -3.37529921631744     -2.69737017682989     -0.09091420423278
  O   -4.15761405383632     -0.68149732053938      0.19341385012610
  H   1.31595481385044     -2.16277940162527     -0.22264431385505
  H   -1.06999619978812     -2.92639923141868     -0.18724373641277
  H   -0.05231366031138      1.90990146346285      0.20677129234248
