12
Coordinates from ORCA-job raina_inp/doublemontecarlogen3D586
  C   -1.19667288801955     -0.70157543145464     -0.03148430012343
  C   0.01355583205632     -1.39817363209353      0.03644880124491
  C   1.19321588184125     -0.65090383723638      0.10982430175503
  N   1.22519685487544      0.69601420903136      0.11783692245400
  C   0.06664782808071      1.31029512635599      0.05251549586472
  C   -1.18409688163955      0.68802946313802     -0.02402150874907
  F   0.10557402909531      2.64733879291508      0.06105841506861
  C   2.46552341446116     -1.32925363772427      0.18199930655917
  N   3.46981317859908     -1.91086325126728      0.24229840694046
  H   -2.13731387036724     -1.24030268639401     -0.08964392691792
  H   0.04994559085552     -2.48136806222183      0.03334527507330
  H   -2.08875896983845      1.28260294695148     -0.07449718916979
