18
Coordinates from ORCA-job test_2_sl_inp/doublemontecarlogen3D271
  C   1.63233234927496      0.13986744419179      0.10420713970862
  C   0.80810402364487     -0.98675809288997      0.05543669559907
  C   -0.58509389991792     -0.84572370863162      0.08223963045839
  C   -1.14750072019302      0.43704664872657      0.13753346854518
  C   -0.32348200442559      1.55612382112774      0.19628463040590
  C   1.07004314027359      1.41112425373695      0.18183564419726
  C   -0.90759774649217      2.94268087465185      0.29241812170102
  F   -0.37486265012368      3.76304194567115     -0.64159547052851
  F   -2.24442562645652      2.94747343628663      0.12690126785705
  F   -0.64486139113840      3.50141814617450      1.49624674683185
  C   -1.53234157103414     -2.00990451896244      0.00931364441583
  O   -2.68114239342012     -1.90203408609327     -0.34736784079610
  O   -1.03937602587991     -3.22492664158869      0.36684349718031
  H   2.71120547560018      0.02384574277990      0.07265189110995
  H   1.26637361154461     -1.96800464878898     -0.04364543413537
  H   -2.22658862341511      0.53499292779431      0.12982511812918
  H   1.70506234957252      2.29074637304053      0.21915446655384
  H   -0.17516829741414     -3.12896991722696      0.79049678276653
