15
Coordinates from ORCA-job sd_inp/doublemontecarlogen3D424
  C   -0.78537344681547      1.17731024721109     -0.03914047875028
  C   -1.44713044743272     -0.06936647866938     -0.03388209252186
  C   -0.65468598982423     -1.22608057682986     -0.02796839786136
  C   0.73108010966431     -1.18291105044710     -0.02523671062775
  C   1.39142730140597      0.05659798974984     -0.02768892241058
  C   0.58955004872108      1.21763362126684     -0.03559291747870
  F   1.23661930049304      2.41059523448411     -0.05256580628863
  N   2.75974721632945      0.17750891463155      0.02280303418475
  F   -1.25782146536112     -2.42510643847630     -0.02607749142874
  C   -2.87108675748135     -0.15210507113548     -0.03940258402306
  N   -4.03399233659375     -0.20100534619848     -0.04989244841563
  H   -1.35010535364900      2.10228197798510     -0.04982297390701
  H   1.28743246587529     -2.11403866595980     -0.01508060128169
  H   3.31437855549470     -0.61297529492414     -0.26719934656963
  H   3.13920079917379      1.08249093731200     -0.21136226261983
