21
Coordinates from ORCA-job test_1_sl_inp/doublemontecarlogen3D252
  C   -2.42163630900341      1.59071440275758     -0.06076913450533
  C   -1.77708499411228      2.72126552153881      0.44329220181365
  C   -0.39540467903724      2.70438617376441      0.64876005041010
  C   0.30982776197628      1.54894901402674      0.34174613761116
  C   -0.29422406892215      0.39202458715056     -0.16671921690292
  C   -1.68383385518109      0.44240960642656     -0.36225740846815
  C   0.53849252050673     -0.82951668164297     -0.50030511395837
  C   1.13947546960237     -1.57883655215198      0.71730634219365
  C   0.14958437925817     -2.38874354430563      1.55058967380292
  O   0.32409714855032     -3.54441409215975      1.84969264826972
  O   -0.96542510733787     -1.73774968170880      1.97400460812125
  F   1.65025747576222      1.53441364837639      0.53934628961728
  H   -3.49500500090566      1.59998304909306     -0.22246776822118
  H   -2.34391753314906      3.61684442014626      0.67894397261498
  H   0.13911307236529      3.56501828535815      1.03676187009516
  H   -2.18692927031580     -0.43491553517826     -0.76077062955347
  H   1.37751011492856     -0.51732364807428     -1.13194342491549
  H   -0.06298924959197     -1.52300813201152     -1.09753085031467
  H   1.64311712165867     -0.85605177579995      1.37073244773037
  H   1.89553094099904     -2.28860206953206      0.37556390323177
  H   -0.98075593805110     -0.82660699607331      1.63980340132756
