18
Coordinates from ORCA-job srijon_inp/doublemontecarlogen3D475
  C   -0.47910511329777      1.31296629293443     -0.07706522748222
  C   0.91012695929729      1.22531698428844     -0.02582994438643
  C   1.50217569855149     -0.03157137698442     -0.00342743866259
  C   0.74444471557397     -1.20686854505970     -0.04309677146733
  C   -0.64188086635591     -1.10024821852922     -0.10173461363468
  C   -1.26745905254003      0.15359908183194     -0.10416838167086
  C   -2.76592513325642      0.17152800118480     -0.18145981428024
  O   -3.41626966200555     -0.78417933559256     -0.53240761957954
  O   -3.38742492528145      1.33102366939036      0.16143088588678
  C   1.43540865353155     -2.54781363984194     -0.02070479352116
  F   0.54584571194290     -3.55985666017511     -0.06944095685800
  F   2.27114267928224     -2.68785523107319     -1.07013104705690
  F   2.16887066962495     -2.70442984946088      1.10075405829432
  F   2.83911854441767     -0.11530085361495      0.04938318801886
  H   -0.93394947164045      2.29860205006143     -0.13193457023106
  H   1.54485177600842      2.10444044123496     -0.01191429399872
  H   -1.25771303348033     -1.99075145276177     -0.14687498280418
  H   -2.77642815037258      1.92601864216739      0.61741232343397
