17
Coordinates from ORCA-job sli_prashanth_inp/doublemontecarlogen3D534
  C   -1.42546471906726      1.52684658621840      0.02911604729354
  C   -2.70598518492570      0.98573444704907     -0.07835337235561
  C   -2.81488387128938     -0.41295693864026     -0.15518963086914
  C   -1.69226111665708     -1.23141458404639     -0.10680151607717
  C   -0.41832287322831     -0.67353855071705     -0.01405841869865
  C   -0.28493293013084      0.72047090226560      0.04782165492571
  Cl  1.27172689759720      1.48081112843802      0.16844941029048
  Cl  0.96059657644082     -1.72899802086834      0.02566257454621
  N   -4.10799683019053     -1.11304291245449     -0.31580588321773
  O   -4.99712675273167     -0.52806588427326     -0.92315242641619
  O   -4.18377903303833     -2.25074001837253      0.14368911434451
  C   -3.88273490629255      1.95148974840432     -0.03969211498113
  F   -4.42971688136211      2.14163380072500     -1.24841539108203
  F   -4.83510740251740      1.53121258601260      0.81042797359416
  F   -3.46984785240427      3.16493836980895      0.39931602234880
  H   -1.30849548761791      2.59926497052667      0.11341783596707
  H   -1.82147763258465     -2.30552563007631     -0.14239187961283
