25
Coordinates from ORCA-job ewa_inp/doublemontecarlogen3D17
  C   4.89943858053515     -2.12582459701883     -0.01918159103706
  O   3.67577104898433     -2.77339608728656     -0.39412919956189
  C   3.65393987042999     -4.19001932078943     -0.60504534956050
  C   4.29752499866480     -4.96247166445388      0.54603258158966
  C   5.43037747268266     -5.77391176338009      0.41054568771178
  C   5.96658424757967     -6.42375209234463      1.52526230107055
  C   5.38621955936726     -6.26757018172202      2.78320314355443
  C   4.25882559968137     -5.45505615121478      2.92692061675458
  C   3.72061320413482     -4.80848965117220      1.81724595206053
  C   2.13159304609990     -4.56457172000598     -0.67456223521106
  O   1.75528286916558     -5.67155881963867     -0.95639110297955
  O   1.30644454919581     -3.55802081055161     -0.35783289967385
  C   4.24674789962917     -4.47814122245794     -2.00444802220441
  F   5.54134537243013     -4.07461322169407     -2.08400186918718
  F   4.21546998344246     -5.77829561746826     -2.32439228955928
  F   3.56073482473626     -3.79506127364121     -2.93856313148020
  H   4.61148049558703     -1.12291809781516      0.30133324547677
  H   5.58491229027533     -2.05700710686959     -0.86693682152339
  H   5.38690370999866     -2.64726861852154      0.80970617152910
  H   5.89964895708804     -5.91402588581925     -0.55483095361737
  H   6.84300914048965     -7.05374467673362      1.40370740245236
  H   5.80596860507444     -6.77661586621065      3.64608643997026
  H   3.79463818597729     -5.32949631355175      3.90079790924619
  H   2.83982722676771     -4.18319244042034      1.93440762211530
  H   1.86622826198244     -2.76538679921787     -0.23289360793580
