29
Coordinates from ORCA-job test_7_sl_inp/doublemontecarlogen3D37
  C   4.07685327024333     -5.50750873251837     -0.57304740059290
  C   3.49914619693108     -4.42265109803704      0.10958941855474
  O   3.91919850016085     -3.18397547514195     -0.23908124003377
  C   3.33283588914898     -2.09012131734798      0.45563242733995
  C   3.99882502507860     -0.82900374734178     -0.05913558784270
  F   5.32284600182560     -0.82476317628430      0.18035766571431
  F   3.81668043806347     -0.66624276121068     -1.38174969127116
  F   3.45588148947538      0.23560070425411      0.57155088729154
  N   2.58118627444005     -4.55034410459528      1.06153411785537
  C   2.19074159148417     -5.78700286000081      1.39109393482691
  C   2.69375552722233     -6.94842550576863      0.78951786835523
  C   2.20758772653853     -8.25817976679639      1.22864827738811
  S   2.75376629758576     -9.77855100372008      0.48715589917235
  C   1.73488794059242    -10.64310918646332      1.57218899294317
  C   1.06857748989814     -9.76931289585812      2.39527874088626
  C   0.10827635701665    -10.21610851487531      3.44830339052525
  O   -0.11336841234365    -11.40593456855891      3.61092500210753
  C   -0.55560604735382     -9.13956696835443      4.27931761585883
  N   1.34340863345825     -8.43650138065501      2.19077179846437
  C   3.66229996536422     -6.77826430753774     -0.22065438845797
  H   4.82012535722963     -5.33151930531493     -1.34183415422677
  H   3.49367601977661     -2.16677483752173      1.53451203672050
  H   2.25634863682983     -2.02914308322194      0.27026157227632
  H   1.44081034841201     -5.87203912490269      2.17217660354999
  H   1.66173906725274    -11.72093978486358      1.57110800752555
  H   0.19893539514880     -8.53992028323576      4.79975796609070
  H   -1.22874688925879     -9.60661806770416      4.99931576135034
  H   -1.10927961156298     -8.44793755308659      3.63534598865296
  H   4.09185152134177     -7.63918129333648     -0.72595151102501
