28
Coordinates from ORCA-job sli_testing_inp/doublemontecarlogen3D600
  O   3.35834654976907      0.52790541775570      1.71217421539844
  C   3.00966721594090      1.33797237606853      0.71011846504565
  O   2.12560025291326      2.16744751697056      0.81155339180828
  C   3.78570019175010      1.15542459213077     -0.56289822688451
  C   3.45082367721355      1.96068717459471     -1.61884536750779
  N   4.04136223746987      1.90876879783361     -2.84038278945666
  C   3.64722775960210      2.84865207685166     -3.87667587137900
  C   2.19141037135313      3.17513186619620     -4.07243646774834
  C   2.91910914557563      2.35306854799883     -5.10425368989857
  C   5.11279394341547      1.02787097447321     -3.05368460854467
  C   5.79192736587887      0.99608167615462     -4.28616474393635
  C   6.85581556821208      0.12460813619464     -4.46401537786086
  Cl  7.70664762641486      0.07668206698500     -5.98246328973763
  C   7.25900515518435     -0.72783745330042     -3.42110370773645
  F   8.29442693645170     -1.55497884351699     -3.61272235284265
  C   6.59894539243998     -0.70896830533696     -2.21177205545709
  C   5.52136359289841      0.16738232290979     -2.00748376660898
  C   4.84777682211675      0.18235268600462     -0.69671284153000
  O   5.19354864376013     -0.59118049152606      0.22202028309973
  H   4.09826573814434     -0.05988193906219      1.39913717025188
  H   2.66014500135229      2.69018090675398     -1.48883048874543
  H   4.36377519074851      3.65663777786576     -4.01191599025293
  H   1.94341409920962      4.20745639763321     -4.29670131457519
  H   1.46071370576907      2.66348419745402     -3.45449570656062
  H   3.17362989362119      2.80345679549897     -6.05889418772863
  H   2.68428811628380      1.29416205091770     -5.14904553146469
  H   5.49912229731946      1.64255031495788     -5.10164897745440
  H   6.90287750919144     -1.36226763746139     -1.40135617169249
