15
Coordinates from ORCA-job raina_inp/doublemontecarlogen3D573
  O   1.25588689257699     -0.31305537133583     -0.22977720208624
  C   2.44191409784314      0.10096911083856      0.22610594801532
  O   2.90927489305119      1.17943110240088     -0.06090752713835
  C   3.21115952943490     -0.83083242403742      1.13108429052546
  C   2.82876156167504     -2.05782061755448      1.55277372872658
  F   1.64529657299191     -2.59546051529658      1.17849719124762
  C   3.66420930766810     -2.88202363437903      2.43508440959693
  O   3.36811291366455     -3.99018235008018      2.83921187800624
  N   4.86274775231740     -2.24084092449863      2.76774604412091
  C   5.31878061942948     -0.97957031217700      2.37041191715385
  O   6.38422399836023     -0.51468930615892      2.71820078260596
  N   4.42351148327751     -0.32130037855951      1.53852243938666
  H   1.04289029648901     -1.20138900368051      0.10300083738525
  H   5.48983950306479     -2.75439335598407      3.37665827269268
  H   4.66943057815576      0.60343798050273      1.20029698976111
