30
Coordinates from ORCA-job srijon_inp/doublemontecarlogen3D43
  B   0.42563897724540     -2.04824933734735      1.95856968428267
  F   1.48469088168045     -2.71207729393198      1.24182144252666
  F   -0.80234059519684     -2.42882480011862      1.49211052286304
  F   0.64870098490157     -0.65986426589083      1.83434731212129
  F   0.59571523173767     -2.40299101692678      3.33283368449687
  C   2.21203508518387      1.86125660563606     -1.92926663971238
  C   2.90747602140419      0.61853480334668     -1.36521519305440
  C   3.07316238227941      0.68561666159880      0.15960477453809
  C   3.81414507639138     -0.53944430380579      0.70270974555829
  N   3.92019294168426     -0.49741827327957      2.17764164775988
  C   4.56521786753530      0.45759572450939      2.94587926634067
  C   4.24363092587405      0.20668538585539      4.24657309954718
  N   3.40050717734317     -0.89261772430901      4.24966843731693
  C   3.22508975916102     -1.29897351670379      2.98819994218892
  C   2.72691420929953     -1.49564418382753      5.40652740621360
  H   2.09132828731329      1.78790456119949     -3.01496313671825
  H   2.78962704874482      2.76902723245615     -1.71890174394750
  H   1.21705348717012      1.98958799568958     -1.48998586682469
  H   3.89110704155869      0.50103667709193     -1.84278198377327
  H   2.32634311022710     -0.27660998024772     -1.62156111881404
  H   2.09082171097694      0.71416360951251      0.64235557131090
  H   3.61746635428337      1.60217215435967      0.42909189838564
  H   4.82745863626163     -0.62368759589580      0.29499131998114
  H   3.25153268680588     -1.44723367897006      0.47229193727272
  H   5.18077149778804      1.22706436442292      2.50971053337050
  H   4.52917882633949      0.71166369884266      5.15518136821355
  H   2.60435029438086     -2.12151336266439      2.65541341226788
  H   2.45321316819793     -0.70302207060276      6.10441744453599
  H   3.38938665967651     -2.20954103322016      5.90294859005133
  H   1.82357426375057     -1.98646703677906      5.03894664170059
