15
Coordinates from ORCA-job test_2_sl_inp/doublemontecarlogen3D260
  C   -1.23033126218547     -1.21964318624801      0.24654750998494
  C   -1.93885902716964     -0.01575821262346      0.28371280687098
  C   -1.26948924611820      1.18716550035497      0.04921412049368
  C   0.10436120552016      1.19642700952294     -0.22540799367727
  C   0.77669591333159     -0.01680318559367     -0.25499889721871
  C   0.13627843045862     -1.23205833798338     -0.02533919770811
  F   2.10016384456930     -0.02166918378452     -0.52009790714267
  C   -1.99902330451559      2.50659479156596      0.07677904082138
  F   -1.72382467622135      3.20953128833737     -1.07181237433278
  F   -3.35083503295890      2.32376175551167      0.14140480499127
  H   -1.74714618214042     -2.15800859289777      0.42695362676195
  H   -3.00188002273594      0.00509014901564      0.49410776935017
  H   0.64315707249379      2.11632469454859     -0.42460701391081
  H   0.71268146727487     -2.14982333058186     -0.06586516271841
  H   -1.71178917960278      3.14970884085552      0.91858886743439
