78
Coordinates from ORCA-job raina_inp/doublemontecarlogen3D578
  C   -1.19088911078963      0.85130402208921      0.34690079763899
  C   -0.43475037308020     -0.12463457884605     -0.37453754827303
  N   0.84358733003441     -0.08487178114433      0.17414142910665
  C   0.93434910768872      0.83500324581410      1.18102557850109
  C   2.10782336575709      1.16469640814912      1.89143104556837
  C   1.91961248840640      2.04366266842920      3.08428011907344
  C   1.21309538874208      1.60393339840463      4.21200261685229
  F   0.70033026604633      0.36636802767266      4.24166582656345
  C   1.02569238010912      2.41382711077661      5.32987634704234
  F   0.35244297246068      1.96217309642114      6.39317653786778
  C   1.55505255577454      3.70263745067453      5.34224471471439
  F   1.38569096817886      4.48175539006942      6.41187870064369
  C   2.26107753359435      4.17337709917067      4.23660386127701
  F   2.76287770691104      5.41242699382979      4.24367756086549
  C   2.42981571053727      3.34848260365490      3.12652456320400
  F   3.10198248619462      3.83837482773911      2.07771508301354
  C   3.43511834781845      0.77989198111424      1.59213733263642
  N   3.93976300882372      0.15472940686594      0.46252831186696
  C   5.31979600458197      0.03401899750826      0.54409123702037
  C   6.16208512598706     -0.46742066189370     -0.46320213785148
  C   7.63295369410571     -0.36687709251152     -0.23689231027569
  C   8.28332543956538      0.86872457794253     -0.11615906063177
  F   7.58322715530701      2.00864414976178     -0.19242846096344
  C   9.65930618027062      0.96452212022115      0.07992247519488
  F   10.24683793879882      2.16081420610587      0.18989366715189
  C   10.42758166244074     -0.19563776200299      0.15165837170274
  F   11.74651408644143     -0.11433876895639      0.33752887554283
  C   9.81396878772782     -1.44080612400123      0.03076373681255
  F   10.54811779071031     -2.55628961861452      0.10268714870927
  C   8.43564602648602     -1.51301960886273     -0.15654674005483
  F   7.88097265791336     -2.72852306958291     -0.25443733667179
  C   5.70986609887209     -1.03942684458244     -1.67928601477481
  N   4.39946531159592     -1.26215720159749     -1.94118158504450
  C   4.34380796760659     -1.76988579610955     -3.21289595204760
  C   3.11621831333331     -2.16775875269754     -3.78653728017598
  C   2.90473316805679     -2.21781190583163     -5.24318319632190
  C   2.18955048023538     -3.27958822541676     -5.82696410469456
  F   1.72355679577319     -4.27711988361104     -5.06787841085248
  C   1.96915272623820     -3.36058147719213     -7.19779899580174
  F   1.30362116724071     -4.39776793955374     -7.71817997913873
  C   2.45941506862763     -2.36105263207389     -8.03586756876355
  F   2.25272803521610     -2.43017445240193     -9.35224435179101
  C   3.16762289976382     -1.29076779940088     -7.49393408687738
  F   3.63072349503657     -0.32498365044423     -8.29599733131666
  C   3.38055509808979     -1.22728369989987     -6.11979024861070
  F   4.03757255660548     -0.15883459156173     -5.64988207535121
  C   2.03908680212142     -2.40907299573631     -2.89002275335302
  N   0.79308897132197     -1.90493727088039     -3.08992414010252
  C   0.23981075859046     -1.90944547792253     -1.84934698124010
  C   -0.73545797874749     -0.92775136840968     -1.48805329077731
  C   -1.85686499720129     -0.60358043326932     -2.38759762246630
  C   -2.11918111707383      0.69912374458981     -2.84306594164886
  F   -1.33160845234546      1.71993204556384     -2.47714163417761
  C   -3.17350290780413      0.98299895322698     -3.70599966632120
  F   -3.38716457737761      2.23610014659277     -4.12341942337742
  C   -4.00035825029873     -0.04771252608486     -4.14721471129739
  F   -5.01875735573605      0.21542660727357     -4.96775173623029
  C   -3.76217344719120     -1.35519780909470     -3.72705024863115
  F   -4.56223207173435     -2.34166214258143     -4.14492216971756
  C   -2.70135429591074     -1.61976910984554     -2.86638283301239
  F   -2.51782253051721     -2.88515852077188     -2.47233046106841
  C   1.04930301538763     -2.65593172254050     -0.89060105022224
  C   2.20295033774176     -2.95239646839402     -1.54667451948247
  C   5.67766629368335     -1.83176880670172     -3.79325409175730
  C   6.53620202474911     -1.40988641917167     -2.82701260349092
  C   5.69649008100953      0.56658761121247      1.81664985680487
  C   4.56652580148620      1.01594061964139      2.44489184561405
  C   -0.37568715190369      1.41491424625180      1.29921735697622
  H   -2.22956853727136      1.08453048264223      0.16154016396601
  H   1.55561215636210     -0.75314394066767     -0.09229131963262
  H   3.48437507515158     -0.11639951847497     -0.40756657962331
  H   0.75311153815613     -2.92572936578484      0.11523533860651
  H   3.05961287996838     -3.50878434169131     -1.19557201746187
  H   5.92237701064252     -2.19815232274425     -4.78118266037233
  H   7.61328619381204     -1.33747710323410     -2.89081668817089
  H   6.70440903019547      0.58752010702369      2.20344419370064
  H   4.50646284813821      1.45783732794926      3.42796870943310
  H   -0.64026101324072      2.19465190841028      1.99834651624862
