14
Coordinates from ORCA-job test_1_sl_inp/doublemontecarlogen3D248
  C   0.04274423546092     -1.89906187602102      0.08238213713601
  C   -1.21056866998427     -1.31916283214063      0.29505372993471
  C   -1.33027603193478      0.06028525960613      0.22021233388674
  C   -0.23395012504560      0.89342108217209     -0.06434340795937
  C   1.00643373019015      0.27053604645529     -0.27360451259376
  C   1.15739810804617     -1.10770808679726     -0.20276922287192
  F   2.06452260810303      1.04653454216198     -0.54883250684324
  N   -0.35449588307414      2.26068633636351     -0.13741893474161
  C   -1.10203673083650      3.19928901217944     -0.04124212127959
  S   -1.96609473815360      4.52037466351955      0.05349119399381
  F   -2.52056755300122      0.64755027688179      0.42202451065419
  H   0.15087511952922     -2.97719926503575      0.13934987911799
  H   -2.08970495354672     -1.91361868788829      0.51687364375358
  H   2.13840088424732     -1.53732647145685     -0.37079672218754
