15
Coordinates from ORCA-job sli_prashanth_inp/doublemontecarlogen3D550
  C   1.06586359628449      0.01824781168405      0.06087986656322
  N   2.51789152251906      0.10965708081213      0.05815493555894
  C   3.31681190459176      1.21590001274454      0.05809632317631
  C   4.63142865467877      0.79281054820118      0.05455272997194
  C   4.51703976363960     -0.61052007457150      0.05409627107613
  N   3.24911244377026     -1.02139896701889      0.05516095882841
  C   5.63116591741460     -1.61296827748935      0.05407500840680
  F   5.58338505391078     -2.42306760900350     -1.02244108112910
  F   6.82617769964716     -0.97946968941413      0.03853461165967
  F   5.60172169087270     -2.40287539279218      1.14649331374699
  Cl  2.68846745829803      2.82379762300667      0.06125735506877
  H   0.64596152049397      1.02336793267894      0.06151524846795
  H   0.73556188748694     -0.51945263823312      0.95251812312729
  H   0.73244696959145     -0.51967657657782     -0.82944116879899
  H   5.52094391680043      1.40134821597298      0.05316750427568
