16
Coordinates from ORCA-job raina_inp/doublemontecarlogen3D581
  C   1.05040762909312     -0.02233268288867      0.01583789005115
  C   2.55315705556027      0.03236905306339      0.12015718066217
  C   3.30415146235943     -1.13467294363867      0.05521932646321
  C   4.69817538375038     -1.18287487268911      0.14186449530976
  C   5.37527672908903      0.03229914062417      0.30499256593736
  C   4.66169656590804      1.22870706406052      0.37500764480514
  C   3.26949747959072      1.22578671660039      0.28391623525108
  Cl  7.12028396908866      0.02829522256728      0.41905462580524
  O   5.36794837930847     -2.35894637771856      0.07122702802436
  F   2.67896801123371     -2.33859952228599     -0.10426804471850
  H   0.61799559601762     -0.64187574256204      0.80923912185112
  H   0.73272552317814     -0.45844298480471     -0.93771430265217
  H   0.62039959818664      0.97920014083867      0.09299358684351
  H   5.20469840704343      2.15880205656246      0.50139512215206
  H   2.72734496671447      2.16490051393221      0.34043438373099
  H   4.71137324387784     -3.06248478166131     -0.04068685951647
