45
Coordinates from ORCA-job sli_prashanth_inp/doublemontecarlogen3D55
  C   4.64926199341684      3.27818781203235      5.73561369869523
  C   4.56298036715115      2.82032874002323      4.27875483962669
  C   3.13216280114792      2.42546031189775      3.90534863302996
  C   5.15478648562160      3.86835143471079      3.33295241171695
  O   5.42561899681456      1.60719572698797      4.28197711383484
  C   5.62956965416674      0.88694801757482      3.18197269871251
  O   5.18146261531933      1.10422194801868      2.06392895403534
  N   6.46129129113031     -0.18144703573657      3.50820381873730
  C   6.90024177435638     -1.20582269293344      2.67958584926116
  N   7.69657261404777     -2.16620915062380      3.06427506692740
  S   8.30558617092353     -2.30223205107897      4.57853323552433
  O   9.76249798318459     -2.23006536384911      4.55364756725153
  O   7.56000903406790     -1.52212475776229      5.59493667893043
  C   7.84960803156184     -4.08397943970586      4.89153583417281
  F   8.28454060358458     -4.41368340351029      6.11010584052108
  F   6.52155798856068     -4.22352771053144      4.84449490992628
  F   8.41480893386417     -4.87626426364304      3.98685714085822
  N   6.44375955099601     -1.15472058926162      1.39509107059322
  C   6.71099297959288     -2.07082393539018      0.35759102919003
  O   7.35083308640633     -3.08843732074627      0.45270688702035
  O   6.10144631992932     -1.57738392803966     -0.73680226768131
  C   6.16782556383269     -2.29889471261534     -2.02845077529242
  C   5.50569051591881     -3.67339106691892     -1.88924242919868
  C   5.35533521048777     -1.38899594118945     -2.95232685314538
  C   7.62466982131482     -2.39420026996280     -2.49203250162153
  H   4.04272492396433      4.17763846587777      5.87620222081524
  H   5.68259239307902      3.50972839984125      6.00893168807194
  H   4.27874243979807      2.50065221757631      6.40958927697995
  H   2.47569212512498      3.29288816016888      4.02758210592363
  H   2.76978785604424      1.63144729286330      4.56579399007371
  H   3.06943452178518      2.08516363362451      2.87080530436749
  H   5.10308387713547      3.54340008718366      2.29307884956632
  H   6.19833741292579      4.07184958262290      3.59265089833575
  H   4.59270848405216      4.80217589286333      3.43495950441301
  H   6.72775078033805     -0.28534252068101      4.49062025852090
  H   5.85658126865342     -0.34892236926000      1.17046044291347
  H   4.48407135576548     -3.56891517812208     -1.50984452019388
  H   6.07039260858464     -4.31944984473454     -1.21603323766228
  H   5.45450378658513     -4.15179736464673     -2.87272954576668
  H   4.32942235487731     -1.28315742956922     -2.58749816587958
  H   5.32316670073228     -1.81481759557908     -3.95965480210555
  H   5.80647849075344     -0.39411331703402     -3.01062373778939
  H   8.21158671635951     -3.02754616748524     -1.82586053659768
  H   8.07898041658137     -1.39896325449779     -2.52906801516840
  H   7.65725109946132     -2.82006904875871     -3.50009043044438
