17
Coordinates from ORCA-job leia_inp/doublemontecarlogen3D19
  C   0.99606953187921      0.04009252948898      0.06147170264237
  Si  2.87328619088659      0.15786887879787     -0.04315137699305
  C   3.43231140152779      1.25597733975155     -1.46831072245353
  C   3.64720960193740      0.67673239939080      1.59417000194026
  C   3.51808528588559     -1.63029438670729     -0.40628615644838
  F   4.85859985791058     -1.66264494715629     -0.64631801005683
  F   3.29180740189401     -2.47255959997765      0.64094448327214
  F   2.91691353704703     -2.19324290736681     -1.49110918737134
  H   0.55685696857911      1.01500744469874      0.30081510469898
  H   0.68618572478082     -0.66633215183498      0.83862323210590
  H   0.56760360544341     -0.29655197330418     -0.88816192046954
  H   3.09461186315601      2.28739093972313     -1.31575372519651
  H   3.02398828408208      0.90946348829210     -2.42340492242478
  H   4.52363874010788      1.27068282594657     -1.55459947486266
  H   3.32646552270506      1.68552024500852      1.87694868382680
  H   4.74049195984636      0.67888107286524      1.53131949207859
  H   3.35931452233101     -0.00577119761631      2.40028279571157
