26
Coordinates from ORCA-job raina_inp/doublemontecarlogen3D577
  C   0.26545022445348      2.20282703293757     -3.27544450861405
  O   0.33160415795244      2.16165511018396     -1.85679350321418
  C   1.55720195833441      1.99063621692464     -1.28041624088484
  C   1.58244060323453      1.95968245987069      0.11998196191082
  C   2.78061431069305      1.78578225206177      0.80115155638728
  C   3.99149763704109      1.63774935736937      0.10615119507948
  O   5.18783869187775      1.45694383581676      0.73929249364054
  C   5.21634199463383      1.42450565973344      2.14573181537651
  C   6.65685674283305      1.17381362519692      2.56108357177976
  F   6.71892154920050      1.16453895203583      3.91263001176047
  F   7.10703181497628     -0.01140881331943      2.11640056954310
  F   7.48505129893941      2.13065980770231      2.11249122460803
  C   3.97735670175287      1.67381158086655     -1.30531132791987
  C   2.75449992885008      1.84901627377617     -1.97672205286479
  C   5.16466665528585      1.54282100316142     -2.20117479337410
  O   6.34988554254576      1.39996782814797     -1.57397246539216
  O   5.08670022252878      1.56576323385348     -3.41780152123446
  H   -0.78744053472661      2.34623845418021     -3.52341982370344
  H   0.61900542881778      1.26549656274957     -3.72419846926873
  H   0.85090037985304      3.03703871318921     -3.68318323068274
  H   0.64932770231277      2.07303582598102      0.66268701704317
  H   2.76265191780346      1.76701743619351      1.88425318726639
  H   4.60200289609843      0.61242879593101      2.55594308513419
  H   4.89247744961026      2.37527524571479      2.58892657503729
  H   2.79832058959242      1.86772835529308     -3.05805746461721
  H   7.00607413550518      1.33226519444813     -2.28834886279646
