18
Coordinates from ORCA-job sli_prashanth_inp/doublemontecarlogen3D561
  C   3.13752077701658      0.43102671512946     -0.39841403973898
  C   1.65174612344852      0.21021478150206     -0.18367040520441
  C   1.03820744430704     -1.06352715016554     -0.15437397622386
  C   -0.35225670923300     -1.17772284999264     -0.00709801517737
  C   -1.12089148975578     -0.03740312442069      0.15245881554744
  C   -0.55039142170393      1.23051105733584      0.14138497644812
  C   0.82657527136603      1.33605037407202     -0.03835743483852
  F   -2.45309709330002     -0.15737881087893      0.31301504447912
  C   1.75619472601641     -2.37816668527209     -0.32227370309351
  O   1.24102482332521     -3.34378938278673     -0.83341245501306
  O   3.02760334585448     -2.46736612451251      0.15101140015599
  H   3.57053587910668     -0.27604433826597     -1.11038249818600
  H   3.71086507637850      0.35802122089577      0.53818828767637
  H   3.31573824439656      1.43945997660598     -0.78067536813340
  H   -0.81568377389688     -2.15733419170696     -0.02430071137295
  H   -1.17892401320652      2.10711631166753      0.25722067802544
  H   1.27731775065692      2.32416535776351     -0.07607987570709
  H   3.26200503922318     -1.66967313697010      0.64400928035667
