20
Coordinates from ORCA-job sd_inp/doublemontecarlogen3D404
  C   1.43973070446791     -0.13931768071704     -0.05957666743029
  C   0.60711764303787     -1.25549806133323     -0.01366165753211
  C   -0.77561307666348     -1.07240964127447     -0.06896465347289
  C   -1.33921732033170      0.19718434716300     -0.19919030246944
  C   -0.49983545258780      1.30896235119032     -0.24621988347110
  C   0.88532373662999      1.14011381444555     -0.16635861738400
  C   1.78402109341718      2.35103973031613     -0.13452781675762
  F   1.25949431158233      3.38406949059656     -0.82794079051217
  F   1.97398342211663      2.78194401660092      1.13375028267828
  F   3.00362706688888      2.08673982675532     -0.64970685018209
  S   -1.85735502151562     -2.50544257775485      0.01982702904144
  O   -3.16175483840249     -2.10500464663397     -0.51543338357213
  O   -1.11226435135139     -3.65886545994633     -0.49171399187566
  N   -2.03936217567535     -2.74101975558578      1.68658865942780
  H   2.51694657773380     -0.26032797913277     -0.02351778616099
  H   1.02073358569253     -2.25608927870966      0.04918961706197
  H   -2.41535267338142      0.30532034009595     -0.27734905945243
  H   -0.91814364477624      2.30372717985600     -0.35483364780259
  H   -3.00987301180316     -2.59202004043394      1.95044916754407
  H   -1.72507657507847     -3.67685597549771      1.92994035232192
