17
Coordinates from ORCA-job raina_inp/doublemontecarlogen3D231
  C   0.88063724968981     -1.92644179431715     -0.26407432150783
  C   -0.46999213194587     -1.62809528904938     -0.46478419662216
  C   -0.82340459868415     -0.27420099005940     -0.43278743633353
  C   0.08901949659402      0.74613086904428     -0.21696102508804
  C   1.42760911259509      0.41684099285213     -0.02937444191851
  C   1.82849727979911     -0.93083507838980     -0.05346933083619
  N   3.23185284599256     -1.33650320493000      0.13150132027927
  O   4.08959397626466     -0.46010168151219      0.08588715395940
  O   3.44479834721187     -2.53371869903309      0.31028720677459
  F   2.27887725619170      1.41153462737175      0.18716969513282
  F   -2.11893509732186      0.08990073579988     -0.61563217786848
  C   -1.40224276144445     -2.79450700541676     -0.69518955811120
  O   -0.99083880178631     -3.92999717784064     -0.70213965966467
  O   -2.70708612578002     -2.52926757557417     -0.89404174929002
  H   1.19026341860456     -2.96489076240285     -0.27508903040235
  H   -0.22703902849071      1.78196815888701     -0.19194751152581
  H   -2.88173043749002     -1.57634612542961     -0.86050493697728
