24
Coordinates from ORCA-job sd_inp/doublemontecarlogen3D408
  C   -0.07258237985671     -2.62430668551719      0.56151960601692
  C   -0.92410235458041     -3.71269136672797      0.74909289266317
  C   -2.30538264349135     -3.51546454583684      0.78052536508167
  C   -2.82860993000279     -2.22754503671036      0.62248347431962
  C   -1.96985727346135     -1.14806092576664      0.43309331361273
  C   -0.57838762880455     -1.32795317128058      0.39944557441594
  C   0.35390496181209     -0.15818368580008      0.17093486434017
  C   0.66729924369743      0.06098711757838     -1.31830140647584
  C   1.67579248277731      1.18326186928849     -1.54029820586092
  O   2.22174136900731      1.79528723273442     -0.65723818552310
  O   1.95133284733163      1.47109827353584     -2.84191033151515
  C   -3.24953421291840     -4.67165958095590      0.97169636654448
  F   -3.98575065339538     -4.90380565393725     -0.14135805487901
  F   -2.60063468440353     -5.81851070604293      1.26711723950787
  F   -4.12961853101445     -4.43464173915757      1.97184242927107
  H   1.00292222242577     -2.78440147276990      0.55178498595869
  H   -0.51895956930930     -4.70976347828188      0.88132795279541
  H   -3.90253604989805     -2.07121806945865      0.65817092354103
  H   -2.38359779481787     -0.14870923345154      0.32126636275462
  H   1.29742070228768     -0.31321187778952      0.70295475234720
  H   -0.07993955292042      0.76045552711356      0.57852865235327
  H   -0.25058600748967      0.28959932556540     -1.87745778481627
  H   1.07093185036020     -0.85943413212563     -1.76318504540228
  H   1.43693358666483      0.89913201579436     -3.42970574105130
