19
Coordinates from ORCA-job sd_inp/doublemontecarlogen3D383
  C   1.40427608520848     -0.20558038385920     -0.01051365990445
  C   0.52856075380469     -1.28964480622247     -0.01642160310559
  C   -0.85302069739526     -1.08666001123629     -0.07942121139301
  C   -1.33393804357524      0.21706734425411     -0.13676077530302
  C   -0.49256542769296      1.32555630943499     -0.13370034594063
  C   0.87330961759655      1.08176639722866     -0.06971221650153
  N   1.80045228781070      2.23391237912548     -0.06403227930336
  O   1.30377602164689      3.35510295746805     -0.11837004967120
  O   3.00210578890596      1.98618241590637     -0.00564283565651
  N   -2.79529720990508      0.43579011379444     -0.20292557401742
  O   -3.18719152365112      1.59787926585844     -0.25156612794703
  O   -3.51227789251361     -0.56145920458354     -0.20406706686850
  C   1.05237344752280     -2.70660171803239      0.04689608731972
  F   0.66619964362444     -3.41206470095024     -1.03579167322441
  F   2.39681025779650     -2.74037957482278      0.10470838067285
  F   0.57311162082455     -3.34753003027675      1.13240420692636
  H   2.47651773415357     -0.34328497509686      0.03854322323711
  H   -1.55182372271133     -1.91466124602257     -0.08434225806828
  H   -0.88521874145054      2.33258946803256     -0.17893422125109
