22
Coordinates from ORCA-job sli_prashanth_inp/doublemontecarlogen3D520
  C   1.09211742805462     -2.47915332614110     -2.64334165829373
  O   1.34714488360396     -3.86789893582874     -2.45021268791122
  C   2.44396413662017     -4.24383326971920     -1.75742829362142
  C   2.63282579863420     -5.63474473035770     -1.59190955019355
  C   3.74394876170894     -6.10067529718993     -0.89830165464510
  C   4.68850399789011     -5.21669364785055     -0.35831334938940
  C   4.47779317517907     -3.84104320030675     -0.50885663482218
  C   3.37711400558175     -3.35357070829410     -1.20479386915105
  C   5.89553608426668     -5.65814995790593      0.40827949640274
  O   6.53282622185355     -4.91687995327882      1.12045576035398
  O   6.27102143430005     -6.95930080013133      0.27858219817882
  C   1.62698030935713     -6.60594548466502     -2.15780255991406
  F   1.52021985552404     -6.49696269131222     -3.49832093400725
  F   1.98115329932673     -7.88721316274551     -1.89245778766365
  F   0.39566774482036     -6.42148251483966     -1.63950704060413
  H   0.16913901691142     -2.42781360785053     -3.22129701307982
  H   1.90187769989107     -1.99921950246595     -3.20570085891566
  H   0.95270963265509     -1.96246419637118     -1.68642539898925
  H   3.83378047638363     -7.17360898103124     -0.76237262951165
  H   5.19801126487674     -3.15946960465236     -0.06855733157428
  H   3.24532001001983     -2.28399972157927     -1.31287216336951
  H   5.78466476254081     -7.38471670548287     -0.44076603927863
