20
Coordinates from ORCA-job test_6_sl_inp/doublemontecarlogen3D339
  C   -0.52078998548247     -2.95324727574138      0.38903550462662
  C   -1.16939335601410     -1.71959527863491      0.46017553163507
  C   -0.50371759218911     -0.53465392279207      0.11069523508853
  C   0.82927917165392     -0.61445465177803     -0.31387256139646
  C   1.45506159183734     -1.85414409561835     -0.37892299353511
  C   0.80722226306629     -3.03437006056314     -0.03428592740785
  F   2.73890964144398     -1.91219254908654     -0.79747802014499
  C   -1.19821558095865      0.80396182759734      0.22814331683109
  C   -1.07855770291463      1.41516173850980      1.63644878047442
  N   -1.82696388889774      2.67280691573340      1.70729662186951
  H   -1.05231676246687     -3.86134575728713      0.65937309346630
  H   -2.20595107104537     -1.67243380040189      0.78391974991564
  H   1.38431393947544      0.27386454692374     -0.60069718848460
  H   1.33516758491746     -3.97928745967941     -0.10466852137700
  H   -2.26334708581889      0.70653363492535     -0.00830850973449
  H   -0.77406097490095      1.50725729708407     -0.50070310125957
  H   -0.00812768898053      1.50429770921841      1.89534576007650
  H   -1.51534068535693      0.71848725977637      2.36229336370251
  H   -1.37549393565813      3.37664025744122      1.12644893155674
  H   -1.80843788171006      3.03624366437314      2.65704093409715
