20
Coordinates from ORCA-job leia_inp/doublemontecarlogen3D199
  C   -3.21397045867289      0.02865066797963      0.07151711801753
  C   -4.32910602938407     -0.76883544795133      0.32131277048916
  C   -4.18402459958093     -2.09038286020728      0.74324281895376
  C   -2.90208964093387     -2.64300793747512      0.92689993159084
  C   -1.79083701085861     -1.82931330484809      0.68357132922557
  C   -1.94229437552418     -0.51456790730654      0.26221268917028
  O   -0.74508084900919      0.16801223367978      0.03598147494880
  C   -0.73196697457806      1.51171032139769     -0.13927137203483
  F   -1.35321606144228      1.88816280705266     -1.27904517130345
  F   -1.33030460621551      2.17001723925877      0.87281939856709
  F   0.53943549594001      1.89439805566227     -0.21040544651733
  C   -2.60640033625171     -4.05827178070713      1.36822447911231
  O   -1.46903311767642     -4.45308829783637      1.49997333522582
  O   -3.64867865563537     -4.87451017539794      1.60911252221125
  O   -5.28104304610545     -2.88391632073365      0.98970671514258
  H   -3.34995923715216      1.04704690561343     -0.26734125319929
  H   -5.32408104378267     -0.35280819358517      0.18009377085106
  H   -0.80337459879688     -2.25221729511256      0.82911256949167
  H   -4.49169407137098     -4.41099314635379      1.45818163286419
  H   -6.09931078296872     -2.40365556312927      0.81057068719298
