42
Coordinates from ORCA-job raina_inp/doublemontecarlogen3D624
  C   -1.88081547631113     -1.04769588659234      1.67692227189668
  C   -3.36049069657334     -1.26169332494014      1.86514633876873
  C   -2.85580977495594     -0.41897500742417      0.71799204577741
  N   -2.95003762426210     -0.92142049256180     -0.64017784944575
  C   -1.81642545945023     -1.22735814282328     -1.32446055587379
  C   -1.79189745932236     -1.67338113578527     -2.61756032685675
  C   -3.02769127192109     -1.82145837918324     -3.35972508526770
  O   -3.06888250997817     -2.23287758759075     -4.54236292177340
  C   -4.24025411049545     -1.44096689108876     -2.63071962758312
  C   -5.48971367374282     -1.51247618335282     -3.26757964661389
  C   -6.63836503653819     -1.16104756713740     -2.60253689303701
  C   -6.63166218717523     -0.68169046098806     -1.26415527602064
  C   -5.37592999051430     -0.60984393034420     -0.63695108413533
  C   -4.19592737787513     -0.99641231954330     -1.28800592761126
  N   -7.77852445115210     -0.28400462117706     -0.58273274897042
  C   -9.00481171881839      0.13230570767182     -1.27108736765532
  C   -9.71409460144718      1.21349077592922     -0.43705282437099
  N   -9.96897357152843      0.82949161008010      0.95264025580321
  C   -8.74677324428380      0.34925243658799      1.59820302223221
  C   -8.02041555261145     -0.73740087734018      0.79187279643888
  F   -7.82039739623022     -1.30897557402745     -3.24970000943732
  C   -0.45071093437084     -1.99051749476990     -3.21035559487982
  O   0.58294191403979     -1.85799452384319     -2.58090517570884
  O   -0.47662375845305     -2.42952715196211     -4.47083010539102
  H   -1.29524978036835     -1.89441688880798      1.33388723273865
  H   -1.35290196987636     -0.38275343623855      2.35287665940719
  H   -3.86894602626428     -0.75665616304317      2.68103181582986
  H   -3.75318130189390     -2.24381169998547      1.62094783910030
  H   -3.00103438072042      0.65766285769990      0.78849882316736
  H   -0.87921083669945     -1.11124311241536     -0.79325671112648
  H   -5.53705824190392     -1.87886690567554     -4.28708635728491
  H   -5.32562143678411     -0.21273529690845      0.36706939172333
  H   -9.68363555425277     -0.72396232683557     -1.42318340769844
  H   -8.75185964007878      0.53042923395188     -2.25386044775929
  H   -10.66552426044763      1.47532000610222     -0.91340974922718
  H   -9.09070856623160      2.11713997337804     -0.42820498753910
  H   -10.67420063732078      0.09441909674103      0.97674463055772
  H   -8.99465589542682     -0.03173328133294      2.59540968341722
  H   -8.07303527860280      1.20665998985118      1.72761042132295
  H   -8.64260548452484     -1.65161988371170      0.77409440788346
  H   -7.07406309298701     -1.00390935514421      1.26673344312017
  H   -1.42858165164484     -2.45459578541899     -4.77104039791753
