14
Coordinates from ORCA-job srijon_inp/doublemontecarlogen3D453
  C   -0.67672706094600      1.21957734431902      0.01483892656100
  C   -1.36163181968733      0.00447548574594      0.00186633552147
  C   -0.69005709916507     -1.21799999250320     -0.01467476014707
  C   0.69891737795191     -1.20929557627320     -0.02819513618984
  C   1.42406567526332     -0.01066000118947     -0.00565543240339
  C   0.71213057549668      1.19579935022725      0.02090898154748
  F   1.36797816513091      2.35587443428761      0.01270963423755
  N   2.88806249491666     -0.01865639061320     -0.01019510253651
  O   3.43761025623149     -0.83230777754446     -0.74747016536865
  O   3.45125800889680      0.78890589047839      0.72344493411923
  F   1.34211063948412     -2.37646204896838     -0.02331689891686
  Cl  -3.10664020088119      0.01400807593873      0.00653646009058
  H   -1.19539845350239      2.17001166689792      0.01717881592022
  H   -1.21895855918991     -2.16278046080295     -0.01416659243520
