19
Coordinates from ORCA-job test_3_sl_inp/doublemontecarlogen3D287
  B   0.90199436904926     -0.11214458647915      0.17048274209525
  C   -0.00163467277720      0.72001322538011      1.14108489407665
  C   0.44861558259344      1.94000086255944      1.67577757602079
  C   -0.35682835026732      2.68219720814601      2.53801141410112
  C   -1.63108827843841      2.21813332638287      2.88743556950801
  C   -2.09191846397203      1.01115461426593      2.36717733072472
  C   -1.28287895340455      0.27154941579117      1.50181240904296
  C   0.11028358035619      3.99118661482747      3.11303207228108
  F   1.33985192107607      4.34070452885844      2.67968195406307
  F   -0.73246074021826      5.00221921029708      2.79032378160421
  F   0.15652191954653      3.95240409399700      4.46699951844243
  O   2.15554137874164      0.36913720814603     -0.11179982755300
  O   0.38741934658189     -1.27642116976510     -0.34318939170896
  H   1.43412608847963      2.30825421973285      1.41241441483453
  H   -2.25322827300151      2.80166712546987      3.55979314695746
  H   -3.08035700410975      0.64899428681840      2.63530146374342
  H   -1.64624156818786     -0.66853956503129      1.09655081235567
  H   2.68053839464076     -0.16919247756272     -0.71452211174723
  H   0.97400372331147     -1.76327814183444     -0.93278776884222
