32
Coordinates from ORCA-job sli_testing_inp/doublemontecarlogen3D82
  C   -0.61020442454779     -4.28122603131715     -0.32182738283248
  C   -0.43190787427997     -3.70432449511619     -1.73527306433359
  C   -1.70522140865714     -3.87512961023386     -2.57439509965846
  C   0.02727417361610     -2.22840035973460     -1.72320495938770
  N   -0.89739752930893     -1.39262335612755     -0.93066901139158
  S   -1.25986965671299      0.18605816551604     -1.34527275519926
  O   -1.75555490699028      0.80627516989208     -0.11672970389011
  O   -0.10915407183679      0.75761202071406     -2.08392744906917
  C   -2.59409916009814      0.05214215113959     -2.52591255666066
  C   -3.87877204410762     -0.24711655829234     -2.05769159732970
  C   -4.92497152832222     -0.36528129133046     -2.96675498496241
  C   -4.65889435836174     -0.17779044819637     -4.32273740358690
  F   -5.66874145544191     -0.29649706487258     -5.19959718437044
  C   -3.38891796657749      0.13341261044389     -4.79854566376715
  C   -2.34165219221837      0.25227547049122     -3.88517402229523
  C   1.50583787014941     -2.07433224329440     -1.26737182990113
  O   1.98316545966133     -0.82360883060040     -1.20856677495720
  O   2.20140024413515     -3.02538506129031     -0.99185370920862
  H   -0.83916985747633     -5.35002849587932     -0.38000012322445
  H   -1.44526436814468     -3.80261727739961      0.20416061826256
  H   0.30196154869120     -4.16718505115924      0.26881983229030
  H   0.38610736152117     -4.25277004828815     -2.21537512892791
  H   -2.54101210629909     -3.31112977848562     -2.14643825140302
  H   -1.99814591828702     -4.92932098175028     -2.61364134685480
  H   -1.56009269118256     -3.53195180273322     -3.60545465334025
  H   -0.01911972123001     -1.84683276155483     -2.75139853381773
  H   -0.85000788934976     -1.47950997942518      0.08009883407747
  H   -4.05672577008273     -0.37291976244244     -0.99506663309305
  H   -5.93527906800865     -0.59324221356557     -2.64533439677592
  H   -3.23509850803971      0.28268431647268     -5.86155865360059
  H   -1.34238734368324      0.51209996642705     -4.21577574010459
  H   1.33413516147084     -0.16081636800690     -1.53357067068620
