10
Coordinates from ORCA-job raina_inp/doublemontecarlogen3D226
  C   -0.64014599620816      1.18058345133829     -0.00055427231093
  C   -1.36426123662524     -0.00448271015230      0.00058033394643
  C   -0.63518267643902     -1.19753029106265     -0.00024861237702
  N   0.68669178975896     -1.19667764154862     -0.00231453955575
  C   1.27968863780084     -0.00443876459044     -0.00368945969106
  N   0.69827860497755      1.18900851089092     -0.00260788649623
  Cl  3.02435451410502     -0.01905494334989     -0.00540772994199
  Cl  -1.47026679251350     -2.72064325365090      0.00133638591453
  F   -2.69772398963621      0.00372699759521      0.00245373837161
  H   -1.15688285522025      2.13736864453040      0.00019204214042
