18
Coordinates from ORCA-job srijon_inp/doublemontecarlogen3D480
  C   1.62659124298629      1.77248934980542      0.06725862754950
  C   0.44312047857722      0.83737921213077      0.00554125816292
  C   0.60917397670828     -0.55166177680105     -0.00642826717952
  C   -0.45530888656845     -1.44519656225799     -0.07455320548581
  C   -1.75248379237842     -0.94329175487362     -0.11613776804869
  C   -1.97087625970779      0.44269770459223     -0.08986145617337
  C   -0.87096606191807      1.30940470280907     -0.04552492666578
  C   -3.33567806147429      1.05983981873483     -0.14274897597416
  O   -3.53561507615828      2.20630097936518     -0.47015395842825
  O   -4.38284189472553      0.26199208612198      0.20409560965234
  F   1.85859046679158     -1.06076200398138      0.04184726044382
  H   2.56721894284265      1.22052245938620      0.04747766002051
  H   1.60294263432321      2.37341140645688      0.98298181389200
  H   1.61765417274651      2.46698776305382     -0.77946860780511
  H   -0.25194143561717     -2.51017720350162     -0.10323186281547
  H   -2.57968010545909     -1.64234078790215     -0.21096478080282
  H   -1.06522653789629      2.37775917258951     -0.05163923068978
  H   -4.06124380307235     -0.55495456572807      0.60951081034765
