15
Coordinates from ORCA-job ewa_inp/doublemontecarlogen3D143
  C   1.03805288307965     -0.05172862858179     -0.01036098547934
  C   2.54242778467518     -0.02791462649234     -0.11069038940927
  C   3.30730097772041      1.14790971664617     -0.13405276687060
  C   4.70250618514644      1.13189658852367     -0.21881505611719
  C   5.38224154808588     -0.08216272752589     -0.27841079908527
  C   4.63305066008499     -1.25310178705870     -0.25023084625316
  C   3.24865093841061     -1.24111248188102     -0.17097140125929
  F   5.27017776264678     -2.44135182222598     -0.30553160272165
  Cl  2.52808479702828      2.73205252240581     -0.04856041501459
  H   0.59724467179081      0.91504483920680     -0.25464570983945
  H   0.72352371145271     -0.31700886511814      1.00635142164257
  H   0.62181549979212     -0.80551748293984     -0.68605306683728
  H   5.24144712641689      2.07237691242157     -0.23673104290761
  H   6.46339443023332     -0.13015477196454     -0.34703198643231
  H   2.71510102343582     -2.18659738541578     -0.15946535341554
