20
Coordinates from ORCA-job test_2_sl_inp/doublemontecarlogen3D268
  C   1.42363560125136     -0.31767700747486     -0.07787984054980
  C   0.55452360021105     -1.40744207690922     -0.05938753791102
  C   -0.82460630504186     -1.20248045727905      0.05979685457318
  C   -1.33959856154000      0.08929050064207      0.16979151779253
  C   -0.45311110264454      1.16613161737761      0.16291750930098
  C   0.92297634105969      0.98088556774116      0.03040254736549
  S   -1.10370883857926      2.83477432489504      0.30458257461891
  O   -0.09353913891674      3.74811517686185     -0.23707113298873
  O   -2.48629031439048      2.80746803662264     -0.17902089267402
  N   -1.15770901396905      3.09294469710182      1.97774665775327
  C   -1.75386049355956     -2.38858388587799      0.00352597571652
  F   -1.94758348510328     -2.80102041411619     -1.26944870916411
  F   -1.24987838031492     -3.44257428204928      0.68383649861352
  F   -2.96679556590588     -2.10680775844087      0.52254171286784
  H   2.49225211036861     -0.47803356702966     -0.18101670534843
  H   0.94176841632523     -2.41809668581906     -0.13795023258074
  H   -2.40729096649832      0.25797875769856      0.24764741093421
  H   1.58048675763393      1.84285692208587     -0.00183603843547
  H   -0.57532127966882      3.89234433271321      2.21339247578672
  H   -2.12138938071713      3.23381620125632      2.26994935432915
