17
Coordinates from ORCA-job sd_inp/doublemontecarlogen3D423
  C   0.01034861002172      1.69848482508620     -0.19296628514825
  C   -1.16321995973350      0.92667880161073     -0.24953943395478
  C   -1.17619279445797     -0.45095667831378     -0.13151051630793
  C   0.01121909459791     -1.17282713906701      0.05160635016210
  C   1.19327272116482     -0.42205769863598      0.10053492894363
  C   1.20126533598439      0.96124668076453     -0.01437006488435
  F   2.39039425646541      1.55563207793548      0.03723487762322
  F   2.35454916854643     -1.09178186520034      0.25306096248676
  N   0.01358728762954     -2.53283611461681      0.21752159786608
  F   -2.33895046066289     -1.13215819396617     -0.20142368698564
  F   -2.37304701700964      1.52077501630987     -0.43295014435350
  C   0.05729585687652      3.20107565019978     -0.28711939115721
  O   1.06619668911034      3.83543962101033     -0.09624620288615
  O   -1.09289237835949      3.83774277468297     -0.60621652080811
  H   -0.80754557693589     -3.03297057594368     -0.08656487829410
  H   0.89684503766444     -3.00335098223483      0.09204213271220
  H   -1.82785587090215      3.21496380037870     -0.70741372501395
