14
Coordinates from ORCA-job leia_inp/doublemontecarlogen3D183
  C   2.02764591442553      0.52006732269843     -0.00206818496715
  C   1.87001330031998     -0.86650998485231     -0.02588974165269
  C   0.58090555222294     -1.40970128398330     -0.01266172596913
  C   -0.50760882029565     -0.55665396364387      0.02733928090922
  C   -0.38481834925467      0.84093817585659      0.05657910704112
  C   0.91692395161742      1.36498242981633      0.03953480524129
  N   -1.52543625601000      1.63508056060396      0.15636489792948
  F   -1.76977768320514     -1.06769043175426      0.02465983294526
  H   3.02324180830215      0.95423412096596     -0.01473126122727
  H   2.73434826894668     -1.52201925630933     -0.05695605460612
  H   0.40697805774793     -2.48065988668779     -0.03694555365023
  H   1.04931798909598      2.44389441747607      0.06496062975133
  H   -2.37654536173056      1.17067682239990     -0.12934861006000
  H   -1.43809837218259      2.56376095741363     -0.23197742168512
