20
Coordinates from ORCA-job sli_prashanth_inp/doublemontecarlogen3D483
  C   -0.65553488434752      0.81869514816143     -0.48481166459835
  C   0.66629113391789      1.22180352003241     -0.67445816228696
  C   1.63052352140358      0.79091251516495      0.23049390884950
  C   1.31321737442197     -0.02684838645362      1.31052736192666
  C   -0.01291973118080     -0.42142088049401      1.48328731718747
  C   -1.01444511411711     -0.00708699222917      0.58962895276501
  C   -2.46798116720176     -0.39766099930454      0.81564060564041
  C   -2.64001124932982     -1.90691096120386      1.12190283363092
  O   -3.40801033861264     -2.32501521991051      1.95367050696707
  O   -1.92909424916824     -2.75885103058556      0.34459302380339
  N   -3.09833613221460      0.45995083527231      1.81393589344110
  F   2.91075529557265      1.17135371222872      0.05399757026000
  H   -1.42138923862062      1.15796784187733     -1.17697417012307
  H   0.95441611387283      1.86003973636455     -1.50289100260535
  H   2.09581547119460     -0.34376803093059      1.99148569552684
  H   -0.26685208496766     -1.06613933059558      2.32156544763609
  H   -3.00397159133254     -0.25156764182862     -0.13547513655454
  H   -1.30782169692635     -2.25338095261422     -0.20306265252906
  H   -2.51623462766188      0.47835473424493      2.64923964555303
  H   -3.97090680470196      0.01756238280365      2.10061402550985
