22
Coordinates from ORCA-job test_3_sl_inp/doublemontecarlogen3D281
  O   1.23983112841318     -1.86160370365391     -0.07184843663451
  C   2.64553964439133     -1.68858913641375     -0.29125823559282
  C   3.24230926787775     -0.81991906772285      0.84254737950565
  O   2.42582423346811     -0.65791036611543      1.89303876121386
  O   4.34699174909294     -0.33530344598607      0.78095275107344
  C   3.33054627956317     -3.05020387835729     -0.37341245005087
  C   4.73090460355951     -3.13430149226425     -0.41629750098512
  C   5.35445505225712     -4.37524802809914     -0.52280377625859
  C   4.59592835368456     -5.54568722400327     -0.59210326163197
  C   3.20480724520326     -5.46017168017988     -0.55462587803254
  C   2.57043376714322     -4.21767145606647     -0.44388462180048
  C   2.35067063983974     -6.69877162601396     -0.61835761559759
  F   1.38177910850303     -6.58265967788513     -1.55733423962789
  F   3.07062505421795     -7.80241607909518     -0.91402964488135
  F   1.72016368421348     -6.93396776226584      0.55562958838878
  H   0.75972700771652     -1.21379400593022     -0.60274231420288
  H   2.82600924165540     -1.13987669568501     -1.22426222703370
  H   1.59564184406136     -1.12483909319114      1.67116841154893
  H   5.32087045124288     -2.22609360857275     -0.35356171176216
  H   6.43841544226385     -4.43140317428782     -0.55345493271992
  H   5.07684211289559     -6.51336977376818     -0.68001859450959
  H   1.48898408873600     -4.15678902444243     -0.41983145040869
