17
Coordinates from ORCA-job sli_prashanth_inp/doublemontecarlogen3D564
  C   0.60876293561581     -0.88256546866005      0.88410258688895
  C   -0.71336823996180     -1.22920125722043      1.11663559068759
  C   -1.75318386244408     -0.63361314244983      0.38920447704652
  C   -1.49283116094106      0.31255665257096     -0.63451857398414
  C   -0.14683766535604      0.61831386542997     -0.87105253493316
  C   0.86859969926957      0.04804026396296     -0.11619221346643
  F   2.13590942263927      0.39684808663881     -0.36837568148450
  C   -2.42571292203298      1.02647965645888     -1.63188243334513
  O   -1.96016451539038      1.42871818797121     -2.67551789075938
  O   -3.69567170385665      1.23175323785271     -1.31219204705472
  N   -3.08993553600825     -1.10063721599668      0.79657851537650
  O   -4.06545844491632     -0.33584747726292      0.69636854350958
  O   -3.17986762472955     -2.22336633795118      1.27259398690067
  H   1.42073936439926     -1.31995101093466      1.45376441753808
  H   -0.96521596768717     -1.96428768926935      1.87017381179992
  H   0.09144811008957      1.30064110549229     -1.67774058013240
  H   -3.91483188868918      0.79984854336732     -0.45388997458795
