17
Coordinates from ORCA-job test_2_sl_inp/doublemontecarlogen3D266
  C   -1.14994144280818     -1.20691403552152      0.09001782909816
  C   -1.86580212671627     -0.00845211678677      0.07964623236001
  C   -1.15887254977208      1.19158052376410     -0.02453757864233
  C   0.23334968465332      1.20237205110222     -0.11678206689674
  C   0.95341781833661     -0.00300176588282     -0.10396729663771
  C   0.23885500533528     -1.21113969717240      0.00186390043130
  N   2.33888700672301     -0.00606477262765     -0.25246335285437
  C   -1.89338085254803      2.50462347241696      0.03149132319968
  F   -1.32788043688414      3.43808407117800     -0.76936397379815
  F   -3.18622262971427      2.38117743971701     -0.34214017363097
  F   -1.89416612696581      3.02233997517336      1.28402900223078
  H   -1.68126343771666     -2.15121794150611      0.16831787806107
  H   -2.94732429183656     -0.00253358519606      0.14500024238060
  H   0.76014925912767      2.14754031903928     -0.21068567573586
  H   0.78191245209480     -2.15328652071497      0.00705856169390
  H   2.80757663729809      0.85095748780870      0.00634249331784
  H   2.81350603139323     -0.82397490479135      0.10359265542279
