16
Coordinates from ORCA-job sli_prashanth_inp/doublemontecarlogen3D558
  C   1.12641608127968     -1.16488006624703     -0.21203159923096
  C   -0.10357183749252     -1.81130875883330     -0.19979181968661
  C   -1.29681126011638     -1.10484416294652     -0.00272671518608
  C   -1.25432268141557      0.29420740888695      0.18440057356081
  C   -0.02019303033223      0.95435789671268      0.17170085392548
  C   1.13614164318307      0.21661555287831     -0.02831972707079
  F   2.31682258598613      0.86167556974405     -0.03417570310128
  O   -2.35130742980591      1.06608579116884      0.38193699943815
  C   -2.60603290862911     -1.82844534917009     -0.08844924413773
  F   -3.21643933457490     -1.66213763487198     -1.28346762104319
  F   -2.48308826597662     -3.15047923886469      0.11841882804948
  F   -3.50278184231017     -1.36234114980539      0.84595906951042
  H   2.05705268074668     -1.69980291525677     -0.35977577627466
  H   -0.15043419003113     -2.88521682133835     -0.34209647247179
  H   0.02008431851845      2.02616753494501      0.32474577726807
  H   -3.12282452902946      0.50592634299828      0.54986257645069
