28
Coordinates from ORCA-job raina_inp/doublemontecarlogen3D23
  C   1.41971518854200      0.02978070102616     -0.26316298970410
  C   0.51280572249300     -1.03584169730457      0.40845524009966
  C   -0.91100784658742     -0.72375338740465     -0.08316709948782
  C   -0.93962396702812      0.82705565320456     -0.23651071763916
  C   0.46826973483829      1.11882797142869     -0.82631332106499
  C   -2.08331469376248      1.37000574679167     -1.09289875106584
  C   -3.21393645545983      0.59450475641666     -1.39450830465767
  C   -4.24382191738216      1.14500704344941     -2.15473181456331
  C   -4.20426831907280      2.44837440383172     -2.62921968224512
  C   -3.08200636528549      3.22173084265485     -2.32178840104628
  C   -2.03806815351714      2.69495318425601     -1.56292100272671
  F   -5.31457715683836      0.37468256892076     -2.43862480963411
  C   -1.03265042374351      1.42516368606735      1.18983793953205
  O   -0.07953597223773      1.80866465318607      1.82501636996429
  O   -2.27019688401835      1.44124071428399      1.74454611655028
  H   2.01842406314430     -0.40734939187635     -1.06869520748897
  H   2.11328490020016      0.45789074607881      0.46371738057634
  H   0.56102563494973     -0.93717486907781      1.49707659161265
  H   0.80837570477321     -2.06047770054160      0.16339561434597
  H   -1.68723450735274     -1.10643779770920      0.58844255676151
  H   -1.08035808836430     -1.16713422730287     -1.07196757775390
  H   0.80683931908526      2.12610083575967     -0.57449239002508
  H   0.40196030283003      1.04868681448806     -1.91697544425123
  H   -3.30589303742909     -0.43716816102795     -1.07322634729456
  H   -5.02861204919287      2.83525619015492     -3.21823184640015
  H   -3.02508466349331      4.24613546216197     -2.67814661202905
  H   -1.17878775944578      3.31673222472301     -1.33224605225546
  H   -2.93121231064449      1.20323303336063      1.07474056189078
