19
Coordinates from ORCA-job test_6_sl_inp/doublemontecarlogen3D337
  C   -0.56108778369060     -2.35030608423321     -0.14537269574803
  C   -1.26319927325011     -1.15116555455614     -0.02649500541534
  C   -0.58859088720675      0.06059938290575      0.21225318152050
  C   0.81443763308245      0.03981873203383      0.33015963859212
  C   1.48790456490147     -1.16429650556309      0.20757830471340
  C   0.82856053721539     -2.36916042666926     -0.02918604704581
  F   2.83200928531058     -1.17113396871739      0.32065811506845
  C   -1.37694800834492      1.28812582695308      0.32490579530857
  C   -0.93764940033262      2.54083972085846      0.54266754352616
  C   -1.91627447967439      3.65780505713432      0.62075291516212
  O   -3.11384739607010      3.53013749800023      0.49972371944530
  O   -1.38817153815491      4.89393382552140      0.84470293369796
  H   -1.09723725459875     -3.27627482100686     -0.32984273067676
  H   -2.34530890296606     -1.14479336504155     -0.11896443710396
  H   1.38819855170103      0.94123694726350      0.51457741098906
  H   1.40208652804739     -3.28561606829857     -0.11720950482628
  H   -2.45513588302179      1.17753111171979      0.21785886386823
  H   0.12103980101858      2.76278306318721      0.66362092263527
  H   -0.42539609396587      4.84199562850850      0.92199107628902
