50
Coordinates from ORCA-job sd_inp/doublemontecarlogen3D380
  C   4.67823401936603      6.70920406216221     -3.21921190526675
  C   5.57774862598715      5.82717595611008     -3.82787621794553
  C   5.20004732748917      4.51524596845796     -4.12469996698656
  C   3.90843300669848      4.09478828246319     -3.79939822349735
  C   3.00304774113519      4.98368777505123     -3.18372260684457
  C   3.38241316020568      6.29008178669795     -2.89362473176393
  C   1.67130792835034      4.28980835446838     -2.93166680870062
  C   1.92036661757901      2.89730229245122     -3.49572690784376
  C   1.06119494235262      1.80478542590712     -3.56482143650621
  C   1.52484983304089      0.61251987113958     -4.13432558038026
  C   2.83027705167149      0.51860067529540     -4.62913372469348
  C   3.69636708450145      1.61260617858691     -4.56369938489241
  C   3.23690400677652      2.80268144302319     -3.99495231133463
  C   1.29919844689286      4.31056062557593     -1.44597812929247
  O   -0.03272047533231      3.76875597754560     -1.31724812327068
  C   -0.43002439382493      3.50053156262341     -0.04589763074505
  O   0.24574104362887      3.68811596489295      0.95077422240175
  N   -1.69290410228053      2.97705213939373     -0.04778146652029
  C   -2.37686053402026      2.71676260730131      1.20957432700962
  C   -2.97049964591873      4.01786463293315      1.82900290719605
  C   -3.58829974680357      3.82089736975512      3.19488858024663
  C   -4.97689205161363      3.71410041211799      3.34085250215399
  C   -5.51338288749235      3.51578142498620      4.60884438928997
  C   -4.72503433180876      3.41857111269133      5.74872394012181
  C   -3.34927904707805      3.52770655510185      5.57227063515138
  C   -2.76602697731763      3.72653794212142      4.32673364284371
  F   -2.55575159782471      3.44580008530458      6.65762828737283
  F   -6.85133424000897      3.42084486754024      4.73996059891496
  C   -3.45423071338925      1.66331878705193      0.99053634956998
  O   -3.64782359129329      0.69622558296243      1.68524863433261
  O   -4.22114142096781      1.96082968395217     -0.09385141128512
  H   4.98695073410583      7.72698050185029     -2.99808533495870
  H   6.57980834087070      6.16720931179589     -4.07446925294733
  H   5.90334173012233      3.83693031731679     -4.60034507249145
  H   2.68811304608515      6.98351572150795     -2.42501531362445
  H   0.86377540096171      4.79217425292163     -3.48389966083555
  H   0.04948948663295      1.87303676655296     -3.17802605345617
  H   0.86421044507772     -0.24806843297130     -4.19296773632048
  H   3.17332193968634     -0.41380297733295     -5.06915251300268
  H   4.70899873245108      1.53441301350842     -4.95043528422087
  H   1.30242860747813      5.33379278992085     -1.05533667029909
  H   1.99672129794227      3.71672016517674     -0.85018424338701
  H   -2.23232903734640      3.01113479929803     -0.90055467884345
  H   -1.65173594539720      2.29221971112837      1.90572914775397
  H   -3.70554934088831      4.43143176167817      1.13081682487987
  H   -2.13592621503493      4.72277363575855      1.89416321081868
  H   -5.64372194512818      3.78893466368162      2.48818410909485
  H   -5.16046158694174      3.26834731514684      6.72900890002570
  H   -1.68677958103854      3.81130775394277      4.24953706064192
  H   -4.88242118833992      1.25152352345195     -0.16577988766325
