12
Coordinates from ORCA-job raina_inp/doublemontecarlogen3D575
  C   -0.20356897816026     -1.53703805452112      0.00351295287256
  C   -1.10707994528203     -0.53830963425107      0.00235076663343
  C   -0.69510923213437      0.86840076193993      0.00001503460823
  O   -1.44140768992173      1.82932195649365     -0.00088159934251
  N   0.70515613826412      1.01050264677272     -0.00099681580747
  C   1.68342099957427      0.02094582002147      0.00031272073246
  O   2.87919908567274      0.24631902440299      0.00005351009439
  N   1.15049570107811     -1.26338706375228      0.00237502285279
  F   -2.42233497125761     -0.78803306231966      0.00341932116143
  H   -0.49780919706187     -2.57948244418064      0.00530815824670
  H   1.05243906093180      1.96253238072109     -0.00226767172433
  H   1.82967902829684     -2.01013233132707      0.00379859967231
