22
Coordinates from ORCA-job test_2_sl_inp/doublemontecarlogen3D256
  C   1.06568259002609      1.55112135707670      0.68632571396910
  C   2.42547378213257      1.25292672216529      0.72743882034714
  C   2.84432252137267     -0.00510839944342      0.30351582320128
  C   1.95066866177235     -0.97029985511143     -0.15826470358705
  C   0.59749974279112     -0.65872512222402     -0.19327587092078
  C   0.13729070823103      0.60252947369197      0.22657232151568
  C   -1.32760312043412      0.86345817861537      0.16605058554071
  O   -2.11717546904935      0.01774247135175     -0.22625147181330
  C   -1.85721995120086      2.22947427855641      0.62879048407248
  C   -3.36231976779267      2.28773931773750      0.44145471895933
  O   -4.16175328804149      2.16874369642235      1.33624172571219
  C   -3.87652717360611      2.58527627178735     -0.99127545332284
  F   -4.98645339914213      1.90113713485680     -1.26765858995409
  F   -4.15310872845854      3.90700708235675     -1.07358640261545
  F   -2.94702456420687      2.30914323938555     -1.92875622030106
  F   4.15507448884071     -0.29848524505958      0.34173596463709
  H   0.73716439477636      2.53087683812000      1.01800099796732
  H   3.15824157658082      1.97117933641233      1.07855522564550
  H   2.32462181823995     -1.93715813539011     -0.47759678983439
  H   -0.13195350964008     -1.38109996180990     -0.54372856267454
  H   -1.36448871313309      3.03256015231818      0.06784487527953
  H   -1.64504260005837      2.37092116818415      1.69349680817614
