22
Coordinates from ORCA-job srijon_inp/doublemontecarlogen3D481
  C   0.68970744526779      1.23767998717447      0.77640372226371
  C   1.62261202035990      0.03084133813841      0.58928522368757
  N   1.10986366873237     -0.82312274381969     -0.48815223877585
  C   -0.20952328968693     -1.37784818367516     -0.15258152715837
  C   -1.22215288325717     -0.23411395270410     -0.00253147163247
  C   -0.76205565955499      0.81071149625826      1.02427700820639
  C   -0.98527493705578      0.33218015598807      2.46805485611243
  O   -0.40805568987038     -0.62327248524800      2.93464685794571
  O   -1.87334436736628      1.04981620477616      3.17579605309855
  F   -1.58063195684417      1.96494933160153      0.85089317176614
  Cl  2.10060704619547     -0.38913089185424     -4.88416376527058
  H   0.68143818540631      1.84139382446555     -0.13852399146822
  H   1.04493193846116      1.87236111102555      1.59527893075005
  H   1.72504491489943     -0.49296593682712      1.55268468069185
  H   2.61456723848317      0.40135915961062      0.30774789054782
  H   1.76094724306451     -1.58902947911940     -0.64059250925125
  H   -0.19655205480279     -1.97176091963932      0.77448096739515
  H   -0.53133403784608     -2.03428696575414     -0.96810862029295
  H   -2.20700619731357     -0.62630070550589      0.27275618807723
  H   -1.32582761274177      0.28992722758676     -0.95820230866620
  H   -2.19410209215319      1.76565239946972      2.59859596223197
  H   1.87233107762297     -0.17782997194805     -3.64235508025870
