23
Coordinates from ORCA-job sd_inp/doublemontecarlogen3D372
  C   1.41105000000000     -0.18319000000000     -0.07405000000000
  C   0.57005000000000     -1.31086000000000     -0.04851000000000
  C   -0.82005000000000     -1.12228000000000     -0.10260000000000
  C   -1.35000000000000      0.16986000000000     -0.17141000000000
  C   -0.50838000000000      1.28577000000000     -0.20936000000000
  C   0.88450000000000      1.11891000000000     -0.15628000000000
  C   1.78858000000000      2.33088000000000     -0.18929000000000
  F   1.62577000000000      3.06845000000000     -1.32071000000000
  F   1.55439000000000      3.17706000000000      0.85056000000000
  F   3.11268000000000      2.02077000000000     -0.12969000000000
  S   -3.10543000000000      0.39242000000000     -0.27527000000000
  O   -3.38070000000000      1.68427000000000     -0.85710000000000
  O   -3.70413000000000     -0.82679000000000     -0.76368000000000
  N   -3.53107000000000      0.50765000000000      1.34298000000000
  C   1.13641000000000     -2.71077000000000      0.03433000000000
  F   0.77929000000000     -3.47841000000000     -1.03046000000000
  F   2.49645000000000     -2.74292000000000      0.08193000000000
  F   0.70661000000000     -3.37604000000000      1.14107000000000
  H   2.49371000000000     -0.32148000000000     -0.03306000000000
  H   -1.48458000000000     -1.98678000000000     -0.09128000000000
  H   -0.93111000000000      2.28841000000000     -0.28078000000000
  H   -3.93199000000000      1.42741000000000      1.53232000000000
  H   -4.15003000000000     -0.26414000000000      1.59553000000000
