17
Coordinates from ORCA-job sli_prashanth_inp/doublemontecarlogen3D543
  C   1.93820048605824      1.01192475033742      0.03410170279498
  C   0.62474789707323      1.50611678412104      0.00426666625725
  C   -0.39011282684093      0.57309578910736      0.00740824706999
  C   -0.12367322312584     -0.78636407745214      0.04043237424713
  C   1.15353753657796     -1.30266333652008      0.07045163356945
  C   2.21562473763900     -0.36760305773035      0.06664979776387
  N   3.53520308234070     -0.82224165296468      0.15782343862340
  O   -1.32254974462590     -1.47425086868424      0.03264193449271
  C   -2.33102763174219     -0.51188228962657     -0.00685432485675
  O   -1.76863829662519      0.75592196614091     -0.02403777049982
  F   -3.09748661007219     -0.69840920885920     -1.09720836731956
  F   -3.13797634895795     -0.65054308431433      1.06079984240512
  H   2.76649779189778      1.71478493418316      0.03827805220852
  H   0.42181182706614      2.57074834905886     -0.02247588649167
  H   1.33288510177633     -2.37188510178806      0.10174813125638
  H   3.69025245945504     -1.75816914582048     -0.19161020400282
  H   4.23138376210577     -0.17710074918863     -0.19018526751817
