12
Coordinates from ORCA-job sli_prashanth_inp/doublemontecarlogen3D51
  C   1.49005760695513      0.83420761765770      0.44057453717584
  O   1.96182907028584      2.11100712448230      0.10782285523749
  C   0.31886673040376      0.93236247007538      1.42924466209264
  F   0.72556140695412      1.69306585288548      2.47952339162815
  F   -0.76341479197083      1.51608968445303      0.90105929430375
  F   -0.03194353593302     -0.27266701487675      1.90593684726538
  C   1.11525365522167      0.14282854423225     -0.87464885631675
  F   2.21205351322581     -0.00126851883626     -1.63749525596990
  F   0.61301840558128     -1.08365043310523     -0.62715839976112
  F   0.20775450164110      0.83877509157782     -1.57107677908754
  H   2.25122545655834      0.20179470846362      0.92133841388198
  H   2.19115798107680      2.56779487299064      0.92845928955009
