15
Coordinates from ORCA-job test_1_sl_inp/doublemontecarlogen3D245
  C   0.03617856441679     -1.84437105633866      0.05187732694607
  C   -1.16980162755750     -1.18133116169433     -0.17483068257784
  C   -1.14775312764266      0.19900596517418     -0.28462245147562
  C   0.00818578020667      0.98994009865278     -0.18029429701418
  C   1.19635306976138      0.26286033420408      0.04370810178868
  C   1.22296824698225     -1.12434044391768      0.15850292516846
  F   2.36285164547584      0.90098397427876      0.14283803627900
  C   0.03863244900763      2.50001021799184     -0.26416945451029
  O   1.02349116341669      3.14659964183057     -0.00418349522868
  O   -1.09720873487400      3.11970790618836     -0.65398563567708
  F   -2.34930462615321      0.80824525802518     -0.51366325633200
  H   0.04861060957412     -2.92583747764013      0.14206999587808
  H   -2.11327843394753     -1.70686588552561     -0.26643666838951
  H   2.17646901168477     -1.61100983585851      0.32918719233590
  H   -1.81477399035122      2.48308246462918     -0.79182763719102
