16
Coordinates from ORCA-job ewa_inp/doublemontecarlogen3D14
  C   -0.31045604860682     -0.97932383369772     -0.44717526118087
  C   -1.72053977694618     -0.47639615235893      0.00641086475526
  N   -1.62924869120377      0.98519288368415      0.19122538277178
  C   -0.56866931441309      1.40133909612553     -0.73299108504443
  C   0.49717190420186      0.30749813711842     -0.64742447999008
  F   1.25509225999928      0.56822593358949      0.53633692460479
  Cl  3.38851304674257     -1.57286479903125      1.43216477221783
  H   -0.36245168150652     -1.54713567578390     -1.38156306616538
  H   0.17830319325297     -1.61524440613689      0.29572277855004
  H   -2.07027630761275     -0.95460500638904      0.92469031401594
  H   -2.46082420619088     -0.68818402075438     -0.77442381658581
  H   -1.29972235259573      1.16990640693323      1.13678815682209
  H   -0.17464151055725      2.39003342590634     -0.48447440075524
  H   -0.96739719339211      1.43701313501532     -1.75633676780516
  H   1.21419003086364      0.28063733689300     -1.47259626493260
  H   2.54266664796477     -0.66744246111336      1.04485594872185
