16
Coordinates from ORCA-job srijon_inp/doublemontecarlogen3D478
  C   -1.84059086422903      0.86977991947087      0.13916871729258
  C   -0.57295074283871      1.45506428165940      0.11324705767342
  C   0.53414381621930      0.63285205322514      0.00149177541400
  C   0.43440844688204     -0.76322858480788     -0.06984686177683
  C   -0.83345536743468     -1.33712249729740     -0.03378252075678
  C   -1.97201968721223     -0.52458134550140      0.05488706030947
  C   -3.30319561568611     -1.21738601199979      0.09077769494522
  O   -3.44052875740539     -2.37861116704855      0.39460576013444
  O   -4.38885106131458     -0.46761473897405     -0.24302826821846
  O   1.54133408263700     -1.54136269208204     -0.17090564913092
  F   1.78662621657638      1.15590236498472     -0.03522730111886
  H   -2.70844392124876      1.50909618314251      0.27299182555026
  H   -0.43428361523755      2.52832699325808      0.18664812920901
  H   -0.94215040876405     -2.41492524544812     -0.07468598256843
  H   -4.10669576114146      0.37143714697081     -0.63294444059336
  H   2.31839324019783     -0.96300665955229     -0.17349699636477
