42
Coordinates from ORCA-job raina_inp/doublemontecarlogen3D623
  C   -0.90511571464952     -2.31969134106340      0.53164849863992
  C   -2.32996517524111     -2.78359373558035      0.69277267026458
  C   -2.03517709695909     -1.34244898082294      0.35042698057298
  N   -2.34333669496394     -0.83869439889144     -0.97553994554607
  C   -1.33347253460871     -0.48349503176594     -1.81258602967179
  C   -1.51503749664492      0.03954619450214     -3.06398445415936
  C   -2.85391898787890      0.27561742441858     -3.56654318218160
  O   -3.08323808583845      0.74679512374544     -4.70445946843554
  C   -3.93596377251913     -0.06485596977208     -2.63825611250847
  C   -5.27201295409883      0.15405449987998     -3.01170262428020
  C   -6.30075405039824     -0.15697854796230     -2.15632370632592
  C   -6.07955324224715     -0.67727691341373     -0.85257494851403
  C   -4.73983954781549     -0.89144122159142     -0.48774145934529
  C   -3.67761716634914     -0.61348058358029     -1.35953913031879
  N   -7.10270004238395     -0.95906917448907      0.05106351060046
  C   -8.42435663825083     -0.32930992897852     -0.04389712110351
  C   -9.02908968234003     -0.20226033966512      1.36471788205079
  N   -9.07678476096707     -1.46054219079016      2.11184393379469
  C   -7.76462194780330     -2.10814102784878      2.13376662669750
  C   -7.13371072253006     -2.25481837430086      0.74132039295039
  F   -7.57199792710638      0.01721679723424     -2.59484807909120
  C   -0.28448286868857      0.34972991889083     -3.86496295997245
  O   0.83663105160350      0.15290054309127     -3.43279462339184
  O   -0.51057297368480      0.85189527844558     -5.08137731097100
  H   -0.36858575073193     -2.65656534945818     -0.34931102036193
  H   -0.28545420106488     -2.20029221782310      1.41456485888424
  H   -2.70618394828197     -3.00255270010042      1.68773573549296
  H   -2.73986613583091     -3.40539980606043     -0.09695588912975
  H   -2.18534316555995     -0.60303656903613      1.13520159086046
  H   -0.32353671931491     -0.63784310932063     -1.45151579866963
  H   -5.48104112624272      0.54665073367207     -4.00070898735945
  H   -4.53123594272704     -1.25170110277664      0.50988166041721
  H   -9.10147459852771     -0.91700892727672     -0.68653209436947
  H   -8.32124587514134      0.65942965039528     -0.49274718193888
  H   -10.04348878867111      0.20515433964428      1.28983256990144
  H   -8.42918880223903      0.51144776053232      1.94423498918015
  H   -9.75454888576794     -2.08559340454697      1.67815600198083
  H   -7.85934204515878     -3.09400286855121      2.60283220890547
  H   -7.09964675416031     -1.50314960021877      2.76441939969556
  H   -7.72626166584128     -2.97656596116068      0.14851402425480
  H   -6.12112761480873     -2.65661428616655      0.81750579267037
  H   -1.49813894756521      0.92154539856087     -5.20956720016859
