15
Coordinates from ORCA-job test_7_sl_inp/doublemontecarlogen3D368
  C   1.24768018143202     -1.50644171929699      0.07514510018930
  C   0.02841368993086     -2.18382917683495      0.05574596426532
  C   -1.20447427177206     -1.53499706151395     -0.01773451370047
  C   -1.19758320056504     -0.14773419154524     -0.07580106199172
  C   0.00099819783530      0.56970223191088     -0.06187047193168
  C   1.21328492904811     -0.11960440443609      0.01454538802533
  F   2.34671904884587      0.58838229367093      0.03389871032203
  F   -0.01253295883273      1.90021439859737     -0.11495085690860
  F   -2.34513162284397      0.53436830937960     -0.13995786732044
  S   0.04817288563255     -3.97134753070982      0.14862400374621
  O   1.32413858897401     -4.40228049508170      0.70412995211007
  O   -1.23368504046322     -4.43338742438313      0.66411299551176
  Cl  0.08641105557436     -4.49444458817386     -1.91289736996426
  H   2.19392079158820     -2.02912309159451      0.14704851877928
  H   -2.14160227438425     -2.07877754998853     -0.01845849113215
