31
Coordinates from ORCA-job test_6_sl_inp/doublemontecarlogen3D34
  O   2.00529740970284     -1.40618223813073      3.22201967720496
  C   1.30392667885668     -1.68702623974178      2.12014420220359
  O   0.90907175901289     -2.80644212031216      1.86454771431550
  C   1.02516243975545     -0.52840969024122      1.19416787312008
  C   0.29480284416304     -0.75962266188895      0.05195641470619
  C   0.00614223180026      0.28544790891547     -0.85369668203388
  C   0.48135022079005      1.53699174315594     -0.57103244021195
  N   1.21499466419578      1.79185111774480      0.55109440157720
  C   1.71080918343047      3.16718973664809      0.80839426017932
  C   0.66332243623842      4.06583866076639      1.43382331948531
  C   0.27972282452405      3.88657000364707      2.77024865145544
  C   -0.69491134958224      4.70464096033362      3.33912717665017
  C   -1.29321392653849      5.71182105146741      2.57776764885315
  C   -0.91233796215209      5.90372426476362      1.24692683205460
  C   0.06128077023628      5.08278828782753      0.68180595276467
  C   -2.32916350083940      6.62702047881020      3.17669086236598
  F   -1.84410980107150      7.87910960529656      3.34495411864378
  F   -3.41281702204780      6.73628627270925      2.37393126444227
  F   -2.75740530279305      6.19570569005203      4.38111787429665
  C   1.50747133442423      0.80033628441643      1.50251410712900
  O   2.14787439823213      1.10623510231965      2.53221672185126
  H   2.21617971858257     -0.43652025511420      3.22368538961962
  H   -0.04982432742553     -1.77429653757059     -0.12441962369091
  H   -0.57079433087589      0.11565717316232     -1.75435422034909
  H   0.30314954574212      2.39079923709133     -1.21546446440423
  H   2.04791820667160      3.57586956968501     -0.14768884952552
  H   2.57205142857493      3.05500309858095      1.46781489776724
  H   0.74812529265144      3.10261621953425      3.35767349551061
  H   -0.99231495299215      4.56278588793059      4.37219716187726
  H   -1.37765966669354      6.68693312985725      0.65675058763409
  H   0.35927875542644      5.24067825828380     -0.35208432549242
