18
Coordinates from ORCA-job ewa_inp/doublemontecarlogen3D149
  C   -1.75674679124464     -2.01700617121443     -2.00132165247797
  C   -0.92687854930652     -0.93749317884471     -1.69673958041882
  C   -0.19408680117359     -0.99869832381555     -0.52388596818452
  C   -0.22102375981919     -2.06230938260875      0.38235526849121
  C   -1.06678221194297     -3.12787030895531      0.02883942351741
  C   -1.82838479216107     -3.11241173464859     -1.14260260937378
  Cl  -1.19607311755129     -4.53204496718668      1.07287494810929
  C   0.61387938143576     -2.01455590238265      1.64453536816106
  C   2.08936020614072     -2.40656023616412      1.43837161802310
  O   2.60358439948807     -3.35024630462198      1.98086048220062
  O   2.80212281833337     -1.60429040509677      0.61295670747062
  F   0.63197358525389      0.05294628194583     -0.22579022243357
  H   -2.34600283701339     -2.00657223029966     -2.91264632507498
  H   -0.84045587517195     -0.06951103911000     -2.34048171508587
  H   -2.46837982415645     -3.95656939906885     -1.37208337413678
  H   0.21240098976805     -2.69496277641631      2.39325193866918
  H   0.58679790852934     -0.99701118863294      2.05212286075965
  H   2.25497527059184     -0.87253273287851      0.28604283178413
