27
Coordinates from ORCA-job sli_testing_inp/doublemontecarlogen3D76
  O   -0.01002257107253     -1.74461519614034     -1.12118395109016
  C   0.28304995730290     -0.62416843176853     -0.42991561557100
  O   -0.03967553696316     -0.46493290903351      0.72453208185401
  C   1.04016649541718      0.39072558377334     -1.22040295332952
  C   1.44871194118498      1.60486281946920     -0.74503775550107
  S   2.29396439717841      2.45849384519065     -1.98324937438306
  C   2.03985904750827      1.09632747822883     -3.07521516355886
  C   2.51995881784296      1.11310095636676     -4.50258391737822
  C   1.64578946793553      1.94765356526456     -5.42971276246590
  C   2.17943065895247      3.02877807501861     -6.14225609337958
  C   1.37657056653452      3.78393989557568     -6.99857609808961
  C   0.02674077371405      3.47001717055674     -7.15367547379369
  C   -0.51066717478387      2.39306222673193     -6.44526116348035
  C   0.29187192145047      1.63687425774191     -5.58833211636023
  C   -1.96195032143445      2.01518482151250     -6.58689061218124
  F   -2.09935046635732      0.76507795788753     -7.08713006044007
  F   -2.59149641706005      2.02466393801323     -5.38999268027049
  F   -2.63206484191350      2.85270951405022     -7.40603864213928
  N   1.37731941865087      0.11505472633317     -2.53128060556697
  H   0.35363856118480     -1.64308464265528     -2.02038648025787
  H   1.29289504283429      2.00696827506488      0.24552504946401
  H   2.53422802037892      0.06993119032121     -4.83655435895822
  H   3.55101887299547      1.47959956526704     -4.54357561452567
  H   3.23131905546465      3.27940738862754     -6.02910203865244
  H   1.80390172861043      4.61906732114070     -7.54553869057676
  H   -0.60569347599142      4.05092766470278     -7.81525100097063
  H   -0.14005393956490      0.80643294275862     -5.03699390839700
