24
Coordinates from ORCA-job test_1_sl_inp/doublemontecarlogen3D251
  C   2.18219756048828     -0.15222643375305      1.31063894120552
  C   0.85018116066927     -0.69443031384707      0.92163087282696
  C   -0.01262408564827     -0.47151589640358     -0.12649643469446
  C   -1.11511736429036     -1.35346273600133      0.13987138289776
  N   -0.93039825927645     -2.03205918765937      1.24812611790557
  O   0.31796172645212     -1.61595412121660      1.73700591123878
  C   -2.35666672205510     -1.54986602693730     -0.64189946589872
  C   -3.24620201706686     -0.47924349780732     -0.79599451760847
  C   -4.44582361509012     -0.57968535872241     -1.48376686844722
  C   -4.78123209480538     -1.80701394423139     -2.05457920304896
  C   -3.92592955632982     -2.90157286657489     -1.93828307590480
  C   -2.72616352458778     -2.76726786763121     -1.23707225249479
  Cl  -1.66415891512487     -4.15997507374846     -1.15183256983930
  F   -2.91934857699234      0.69908112950692     -0.23326385996190
  C   0.13903549582149      0.43413758274607     -1.26772253297523
  O   -0.64378520317620      0.54791769771056     -2.18877360390106
  O   1.28799913924505      1.16161814795232     -1.19808938127956
  H   2.89069862798865     -0.24604060654888      0.48386850426688
  H   2.55928648217256     -0.69294253689077      2.18085862447485
  H   2.10829931418607      0.91252876863346      1.55237138412011
  H   -5.08880813508991      0.28972779964456     -1.56053227363147
  H   -5.71487369576111     -1.91177089174731     -2.59867374907319
  H   -4.17631943769095     -3.85537826570907     -2.38776355885744
  H   1.29285169596204      1.71964449923611     -1.99378839131984
