14
Coordinates from ORCA-job test_5_sl_inp/doublemontecarlogen3D328
  C   0.17583906275821     -1.80690452107013     -0.00543842507737
  C   1.35563118879983     -1.06779278330762      0.03526958611323
  C   1.31278274936026      0.33910448958993      0.06287212123518
  C   0.06188882457396      0.97997636805689      0.04687857105707
  C   -1.09167627937872      0.20869286117916      0.00633841820384
  C   -1.07297677418860     -1.18121871751559     -0.02135505550019
  F   -2.28462497098814      0.84498349632501     -0.01025218248429
  N   2.48697646287366      1.08465022917869      0.16165664412860
  H   0.22934469341491     -2.89181732333847     -0.02766654074791
  H   2.31730632474901     -1.57408657034128      0.05157403948282
  H   -0.01987862802598      2.06227035342780      0.07164825062260
  H   -2.00250163255262     -1.73749441954591     -0.05476231058593
  H   3.32152864380751      0.62089360545891     -0.16952984044053
  H   2.42635033479671      2.03843293190263     -0.16675327600712
