18
Coordinates from ORCA-job srijon_inp/doublemontecarlogen3D471
  C   0.17998266934070     -1.42357512237462      0.22342225213648
  C   -1.16009543169816     -1.15568652943190     -0.05081752117872
  C   -1.65830423202053      0.15547067263959     -0.06413239341352
  C   -0.77362796893304      1.22256109071775      0.19482923779214
  C   0.57206444764779      0.96481674271900      0.45176096718794
  C   1.02527546647020     -0.35047194560136      0.46955845469201
  F   2.32339565123494     -0.58193734555114      0.72429695602484
  C   -1.23242146102781      2.67037984218382      0.17885891953677
  F   -0.17176213454143      3.51013797073724      0.10980377757753
  F   -2.00858860092664      2.92853334823696     -0.89368662460652
  F   -1.91950187071757      2.99492607522541      1.28441938153069
  C   -3.13674012068264      0.35874947588031     -0.28042598597662
  O   -3.83347049397597      1.05841428361058      0.40790682772139
  O   -3.67366787015420     -0.36679712632241     -1.29910520538756
  H   0.56665016099920     -2.43637922158323      0.25063057222783
  H   -1.83982257733872     -1.98504792498149     -0.22471450347503
  H   1.27028105088483      1.77329957353651      0.62803847895998
  H   -2.96807668456093     -0.75610385964102     -1.83540359134964
