17
Coordinates from ORCA-job srijon_inp/doublemontecarlogen3D454
  C   1.71862885566723      1.24611090717460      0.19314646672961
  C   0.32675879966450      1.24402506872320      0.21964433513821
  C   -0.36602322374965      0.04028011896464      0.07813109007144
  C   0.32517224830015     -1.17562894323594     -0.09495808263867
  C   1.71708643094471     -1.15215923418569     -0.12091983036120
  C   2.42208940112389      0.04995756852688      0.02310531892542
  C   3.90476405229104      0.04747695924590     -0.00297780798875
  O   4.58441914570608     -0.94902654195755     -0.15011109207017
  C   -0.39880352143189     -2.49804756512224     -0.24465526907081
  F   0.47198031343204     -3.51416653132009     -0.41949010741022
  F   -1.13627346431835     -2.78740285694154      0.84673719786216
  F   -1.22853085930630     -2.49577749969156     -1.30703812716456
  Cl  -2.11198087993781      0.10054865306464      0.12538639584323
  H   2.25929383628033      2.18298564084487      0.30560549676060
  H   -0.23045858654962      2.16484844361698      0.35012625706029
  H   2.27772020719819     -2.07042867001306     -0.25243866121482
  H   4.37221724468546      1.04883448230597      0.12577641952823
