16
Coordinates from ORCA-job sli_testing_inp/doublemontecarlogen3D92
  C   -0.65495469410473      1.21204051969440     -0.16644050048404
  C   -1.34220737550632      0.06212543696797     -0.05395155187531
  N   -0.67452167213847     -1.14776494304381      0.05485907616966
  C   0.70838388017681     -1.14421729256035      0.02106570921571
  N   1.43639637115203     -0.07607967783206     -0.07392082578731
  C   0.82584497372133      1.18208925151374     -0.21162066189729
  O   1.48125891660722      2.20369746481196     -0.34753068107547
  N   1.29551058081416     -2.38937031898795      0.05477759879150
  C   -2.84215858519099     -0.03372289832303      0.03536301801678
  F   -3.44023633798064      1.08276661116341     -0.39399416141498
  F   -3.28706946610866     -1.07595898678741     -0.71508639525080
  F   -3.24667393931397     -0.26878412328560      1.30091486118581
  H   -1.15806254593451      2.16759684777116     -0.23374452222006
  H   -1.18573506152396     -2.00290549970838     -0.11616537581008
  H   0.86182366640729     -3.09656999075503      0.63298476309426
  H   2.30109128892341     -2.33444240063901      0.14797964934162
