17
Coordinates from ORCA-job sli_testing_inp/doublemontecarlogen3D605
  C   1.36396758527053     -0.22098843678366      0.00333126435834
  C   0.49962727570042     -1.31701764721054     -0.03217048536929
  C   -0.88495774442364     -1.12343614694820      0.02724377034460
  C   -1.40907928456217      0.17426853236208      0.12554924849277
  C   -0.54562046609039      1.26247156076466      0.16232829291929
  C   0.84270405263325      1.06728044269547      0.10013333472467
  C   -1.07299622090709      2.66746535233908      0.29866773208264
  F   -0.53956453168820      3.48542061503948     -0.63779208884503
  F   -2.41346651327583      2.72488633940296      0.17522264241992
  F   -0.75303058490427      3.19445304789103      1.50316942043757
  C   -1.80202753692864     -2.28912839670396     -0.01364959779693
  O   -3.01402121390187     -2.21034773548069      0.02902910858234
  H   2.43837686542864     -0.36878088168647     -0.04498389144538
  H   0.89754213981060     -2.32651239923142     -0.10741801632285
  H   -2.48471948619424      0.30396847446663      0.16902277488936
  H   1.50670740643882      1.92603758164760      0.12394937855565
  H   -1.29390174240590     -3.27631030256407     -0.08796288802767
