18
Coordinates from ORCA-job test_6_sl_inp/doublemontecarlogen3D344
  C   -1.05945722140160     -1.79855735303228      0.86059137679403
  C   -1.37551182556077     -0.44033279441957      0.81261241092027
  C   -0.57373602791568      0.45441202787628      0.08651131096442
  C   0.54926017389484     -0.04130328114504     -0.59398990849515
  C   0.84368689226938     -1.40043607900659     -0.52976366641341
  C   0.05807210600513     -2.29561086578281      0.18629565243219
  F   1.93185934459773     -1.85557990510316     -1.18118591639489
  C   -0.93276884239530      1.92166683725488      0.00426938120643
  C   -1.91570116680421      2.31043833804200     -1.11564651851718
  O   -2.57764569878571      3.31657814172919     -1.07253130660851
  O   -1.97124555828892      1.48466531058487     -2.18605736612825
  H   -1.68656181931104     -2.47901985269549      1.42904146977418
  H   -2.24768123269824     -0.06846767180311      1.34307124885957
  H   1.21009729278790      0.61543766447798     -1.15260710718129
  H   0.32466166361488     -3.34658422447854      0.21214313859106
  H   -0.03103298484522      2.52470693349325     -0.15948710859274
  H   -1.37939771181673      2.27654990387704      0.93623797023753
  H   -1.41082738334643      0.70707687013109     -2.03154506144825
