14
Coordinates from ORCA-job srijon_inp/doublemontecarlogen3D44
  C   -1.92408148287517     -0.03093619073013      0.11640026220433
  C   -1.25004210629704      1.18995544240052      0.00613339563520
  C   0.13813807645107      1.21994762255256     -0.10267623190275
  C   0.86131509416244      0.02915376990883     -0.10889127574431
  C   0.19034181407273     -1.19843235809406     -0.00129017077045
  C   -1.20307373906078     -1.21918229508890      0.11591957268492
  N   0.90118691284231     -2.48529913338030     -0.01124309564008
  O   0.24367410743336     -3.48965915749703      0.26681679159371
  O   2.09412128008743     -2.48572276934077     -0.30141495637499
  F   2.18927863764049      0.10913134693420     -0.20191185963573
  H   -3.00531206188176     -0.05602692216652      0.20236225411622
  H   -1.80572674428937      2.12282892471628      0.00732293107155
  H   0.68699543864672      2.15210313416940     -0.18272141383414
  H   -1.68789522693243     -2.18356141438406      0.20492379659652
