17
Coordinates from ORCA-job sli_prashanth_inp/doublemontecarlogen3D484
  C   2.12671847089105      1.29594618665992      0.66099500970856
  N   2.07607463959611     -0.11825970266485      0.34268695226126
  C   3.03491722029356     -1.00614353770598      0.83195926555577
  C   3.13648295902674     -2.29618181918219      0.27141095700920
  C   4.05159796994030     -3.22345429712166      0.75856163784639
  C   4.87798729116445     -2.86832670002861      1.82080083295931
  C   4.80521415954050     -1.60771771547735      2.39514393966948
  C   3.88968682025011     -0.67606967662145      1.89977112735000
  F   5.77026930042287     -3.77005781206299      2.29836348459270
  H   1.34177499712417      1.81047248189728      0.10135198683900
  H   3.09314731169733      1.76883417736913      0.41987533409575
  H   1.92878548236711      1.45930539335159      1.72659100102627
  H   1.78106844831304     -0.32088937698224     -0.60167441251162
  H   2.48226499144774     -2.57112061247328     -0.55282619223257
  H   4.13041072892607     -4.21532361080363      0.32539373717606
  H   5.46493047296394     -1.35677437645020      3.21944561196615
  H   3.84458873603488      0.30780099829651      2.35313972668829
