13
Coordinates from ORCA-job sli_prashanth_inp/doublemontecarlogen3D510
  C   -0.75884945042006      1.21226505389601      0.00494463130374
  C   0.63406685735310      1.20721005558518      0.01821900184625
  C   1.30942111558338     -0.00969951103513      0.02492173436106
  C   0.62750902973129     -1.21941856940852      0.01915234146878
  C   -0.76900790497687     -1.21029482278444      0.00599437691106
  C   -1.46556153767634      0.00310030210645     -0.00140603976790
  O   -2.83213628721941      0.07417257284677     -0.01461244131858
  F   2.66252658322933     -0.01371428562401      0.03713389575412
  H   -1.31405027959777      2.14444437885596     -0.00081392142695
  H   1.19940449140762      2.13318679113732      0.02326014863971
  H   1.18394049887824     -2.15061636757531      0.02489744822081
  H   -1.31402289485226     -2.15202975838667      0.00135004083733
  H   -3.19629022144022     -0.82036583961361     -0.02035121682944
