35
Coordinates from ORCA-job test_4_sl_inp/doublemontecarlogen3D31
  C   2.39969836293394      2.33191178504304      1.29412039233358
  C   3.24610456970821      2.95665644920738      2.41467240869548
  C   2.94319112952055      2.06797338307517      3.62545856603242
  N   1.51779313084985      1.68079427186529      3.40820621176247
  C   1.10041353877436      1.91787642589695      1.99369993524875
  C   0.74466553426306      1.12937687938737      4.31388874174884
  N   1.12824347801401      0.56993072278510      5.45518953606958
  C   0.19418478531960      0.28253878703777      6.57879745566520
  C   1.09392211542031     -0.37223676041570      7.63164523619969
  C   2.13529855332418     -1.11452173908361      6.78238414851725
  C   2.44415461475170     -0.12816603806231      5.65252541830040
  Cl  -0.98497044548387      1.18015625379535      4.00089473802370
  F   2.47456110801352     -0.69093656869712      2.49662405706828
  P   3.93708895454254     -1.35406586623274      2.00823454256118
  F   4.52494812107948      0.18688184087065      1.83610769993654
  F   5.36644529931385     -1.95753811210756      1.56791462529228
  F   3.31469322247612     -2.83090035825449      2.23532665377567
  F   3.40735573669854     -1.30739369426208      0.47674943029338
  F   4.41228257762096     -1.29850327701714      3.59004503446247
  H   2.90400637586714      1.44610103293883      0.90812064481324
  H   2.20303479359851      3.02553538181663      0.47284944188285
  H   2.94677224086407      3.99311531324642      2.60902912042522
  H   4.31306566445121      2.93554270736158      2.18494560260699
  H   3.02734592325628      2.57948611489409      4.58801677471811
  H   3.56994572997843      1.17773178441096      3.59925550807464
  H   0.34603684810851      2.71170766956158      1.98323567330923
  H   0.67431897103531      0.99948755363334      1.58849948701146
  H   -0.58184778051336     -0.40996708922008      6.23583834485113
  H   -0.28823883872485      1.20294308027265      6.91746800062170
  H   0.52153017203334     -1.02709793068881      8.29322538609585
  H   1.57667431904379      0.39412766338188      8.24842260661975
  H   1.71118387533271     -2.03587242997373      6.36928269645074
  H   3.03861692613665     -1.37967348630264      7.33630108205476
  H   2.75961330147272     -0.60266570286044      4.72523650639110
  H   3.20022709091831      0.59855395269636      5.96485829208535
