17
Coordinates from ORCA-job leia_inp/doublemontecarlogen3D213
  C   2.31579079726013     -0.25065711371723     -0.38107060435909
  C   1.54438481695108     -1.41708668624688     -0.33879816545516
  C   0.21617949939760     -1.35470075789829      0.06716696687615
  C   -0.35734314991608     -0.12431927081434      0.43543614083253
  C   0.42337046852994      1.04410507608291      0.39094160784628
  C   1.75451188216226      0.97522669966327     -0.01652046867560
  C   -1.78230415039745     -0.14242001856648      0.85491995342853
  O   -2.46015719522569     -1.15013084046700      0.90022474224710
  C   -2.45473638766530      1.19933538351251      1.26209133572367
  F   -2.40422128666193      2.08942042055690      0.24474798565818
  F   -3.73200629062359      1.01494735527911      1.59343646167076
  F   -1.81559964925528      1.75257251101297      2.31827200611252
  H   3.35415096173920     -0.29799349407585     -0.69740359010969
  H   1.98161974117158     -2.37003648760153     -0.62209152942612
  H   -0.40301595523900     -2.24468718670564      0.10887008416165
  H   0.00042781139478      2.00120746835854      0.67040820129729
  H   2.35425808637774      1.87988694162702     -0.04968112782900
