18
Coordinates from ORCA-job sli_prashanth_inp/doublemontecarlogen3D539
  C   -1.35655667564826      1.23145137449939     -0.00305072749235
  C   0.03151323857937      1.24896518362328      0.08094103262890
  C   0.71273650722481      0.03871125681166      0.14716175578819
  C   0.07869265718497     -1.20840264566161      0.14085861867041
  C   -1.32002309306984     -1.21037025235765      0.05707395459210
  C   -2.00880814067913     -0.00538688811918     -0.01584382657370
  S   -3.79738273907918     -0.03006138692883     -0.10597733632416
  O   -4.29114268947941     -1.28101642362185      0.45098718484061
  O   -4.30269195563548      1.27200198442923      0.31081663903704
  Cl  -4.09416578707647     -0.14696857879713     -2.20932732977446
  C   0.75763965143171     -2.55907011304129      0.21946903553759
  O   0.11267663389349     -3.58020186003127      0.20450219124949
  O   2.09955690843443     -2.58615941515267      0.30639539982487
  F   2.06932036935305      0.09961020656967      0.22427752467595
  H   -1.92650605931389      2.15273221164495     -0.04789803181027
  H   0.59183204214695      2.17703158292732      0.09928886839515
  H   -1.83248861694669     -2.16650692775110      0.05794192348353
  H   2.46985774867957     -1.69003930904292      0.30523312325111
