16
Coordinates from ORCA-job srijon_inp/doublemontecarlogen3D466
  C   -0.70114723617486      1.47743382545072     -0.09626075103439
  C   0.61858399684944      1.91593864526750     -0.10245087837571
  C   1.69142087766779      1.01149813798671     -0.04707747723096
  C   1.39175127051553     -0.35721515340292      0.01268199456642
  C   0.08448977598770     -0.82389493538152      0.03389185896456
  C   -0.96960031317484      0.10023426470860     -0.02382935583498
  C   -2.32579952221630     -0.36807355494634     -0.00525517988839
  N   -3.42596510332400     -0.74419801295212      0.01461903515756
  F   2.37980704488308     -1.25361446138265      0.08620547968867
  C   3.11789839588614      1.48217486678660     -0.12347485196958
  O   3.98076408434623      0.91187826451815     -0.73930386682284
  O   3.38213975847235      2.64554381353799      0.53062120190699
  H   -1.52062861299127      2.18510404732666     -0.15149365430048
  H   0.82348405500897      2.97954716883545     -0.18667308571205
  H   -0.10114048077051     -1.88988413258824      0.09501924682894
  H   2.64022200903454      2.88695721623541      1.10352028405624
