16
Coordinates from ORCA-job test_5_sl_inp/doublemontecarlogen3D329
  C   3.19550305706758      0.51993220549717      0.77190444736951
  O   2.71354535296814     -0.06287330393049     -0.42949665646297
  C   3.35785156267801     -1.16003736797271     -0.91936947014509
  C   2.83072132092567     -1.68102713521779     -2.11067608005318
  C   3.42987017867447     -2.79689142267389     -2.67080719759684
  C   4.53639207970992     -3.42408975846822     -2.10155278686444
  C   5.04433681171616     -2.89114380500058     -0.91935806747614
  C   4.46912875398756     -1.76694825177177     -0.31792746635751
  F   2.91695780666285     -3.29688091955179     -3.81555349677777
  H   2.54726732995027      1.37437070786143      0.97307330208135
  H   4.23090947190131      0.86877956622814      0.66579445810165
  H   3.13860728752546     -0.18252223729420      1.61364037951497
  H   1.97145969425972     -1.21476366522821     -2.57833607284491
  H   4.97085688038043     -4.29492055538292     -2.57901843196815
  H   5.90602492469730     -3.35776414538167     -0.45040742973523
  H   4.88797748689512     -1.37870991171251      0.60236056921476
