18
Coordinates from ORCA-job test_5_sl_inp/doublemontecarlogen3D319
  C   1.62760257664984      1.81731467545782      0.04874456190763
  C   0.44614951929244      0.88073132363867      0.00476228797725
  C   0.61621120925087     -0.50467352115687     -0.04685298952166
  C   -0.44579295005876     -1.39947980286474     -0.08996184354527
  C   -1.75585322550223     -0.90480964499502     -0.08558324795280
  C   -1.96187668920744      0.48175039333650     -0.05459120510061
  C   -0.87682496333901      1.35029793249884     -0.00115713181135
  C   -2.96221167917622     -1.79374117488056     -0.14706958090231
  O   -4.04998805129935     -1.40861414026367     -0.50570008671888
  O   -2.78925020197156     -3.09042382635161      0.22610057975787
  F   1.86997172584288     -1.01229565950944     -0.06392156753767
  H   2.56515750719965      1.26763157775797      0.14130812968905
  H   1.54685509621560      2.50766007233617      0.89519548487477
  H   1.67820489543442      2.42362929050793     -0.86293847504780
  H   -0.21547556976001     -2.45800098972017     -0.16951584331024
  H   -2.98038920415821      0.85337610315948     -0.07115107605082
  H   -1.04926100638845      2.42299284996423      0.03456870366173
  H   -1.92741898902447     -3.20646545891553      0.64954329963111
