21
Coordinates from ORCA-job test_3_sl_inp/doublemontecarlogen3D272
  N   2.39734369605964      1.65982721896592      0.13749550021664
  N   3.79198690828045      1.42660276879567      0.14238886730359
  C   4.39496592767397      0.92257471073164      1.27206084168954
  O   3.73831952589244      0.54344297307059      2.23713342170191
  C   5.89601806312388      0.87191078857403      1.25025397798658
  C   6.64885226363151      0.87970586094894      0.06714976685313
  C   8.04206070517886      0.82889789465177      0.12010460528899
  C   8.69425522256990      0.76455507372719      1.35071878936136
  C   7.94510832201231      0.74061172655384      2.53178977259486
  C   6.55260039910330      0.78776701018793      2.48335543600219
  C   8.64495258551630      0.60409463895117      3.85991161807053
  F   9.88920409430148      1.13303245535946      3.82568291277184
  F   7.96738284307827      1.22030588513135      4.85168458582095
  F   8.77924178320551     -0.69374002951686      4.21741595199633
  H   2.12487914966738      1.79140929934581      1.11355782805930
  H   1.94749947203882      0.79197851233696     -0.15275936852190
  H   4.30976945079012      2.07228069924859     -0.43738041041308
  H   6.15086207572584      0.89558871066316     -0.89787287697287
  H   8.62015947847694      0.83328493812581     -0.79896432573432
  H   9.77748553790551      0.73354248671926      1.39924831568455
  H   5.95735249576749      0.76406637742773      3.38929479023985
