14
Coordinates from ORCA-job leia_inp/doublemontecarlogen3D173
  C   1.23973264255504      1.19972287288138     -0.13346593288187
  C   -0.14426735287073      1.28870739000177     -0.06287240599254
  C   -0.84609843609384      0.08852184854967      0.06936547590931
  N   -0.30892587288661     -1.11384176582845      0.12139216842154
  C   1.02405501278952     -1.18372155566784      0.04205114581411
  C   1.85498858540974     -0.06080386475398     -0.07171028608484
  C   3.33181892908247     -0.28792365330659     -0.16279030897986
  O   3.81546933243806     -1.34826591076809     -0.47978830450179
  O   4.13580729230258      0.77005141057286      0.12843873210454
  F   -2.17972727000032      0.14314388435846      0.14422801147743
  H   1.82318415270672      2.10727018695703     -0.26972048951738
  H   -0.67355022450441      2.23274774711198     -0.11655398278364
  H   1.47118690343769     -2.17344011878565      0.07125179626110
  H   3.62822630563408      1.48503152867745      0.53637438075391
