18
Coordinates from ORCA-job ewa_inp/doublemontecarlogen3D134
  C   1.90914440917563      1.39394524299825     -0.05651923348374
  C   0.52551453298948      1.46538613101498     -0.18625658321774
  C   -0.23539584700235      0.29595671759049     -0.20029855193056
  C   0.35684347006039     -0.97575327538263     -0.08454150971232
  C   1.75360372208321     -1.01099409112666      0.04944472757687
  C   2.52432777409893      0.14718103365594      0.06277274284589
  C   4.02174091060639      0.02320773514322      0.19862395101821
  F   4.56765837100013     -0.57169301436394     -0.88358674668977
  F   4.61409299779286      1.22796938206074      0.34116479360782
  F   4.35446391349277     -0.72754724748644      1.26968472130776
  C   -0.29831953828510     -2.35021879266910     -0.07385018531014
  O   0.36777640708989     -3.34230837058855      0.11633801587668
  O   -1.61875303316177     -2.46015017765477     -0.28724414770160
  Cl  -1.98311257771169      0.53265510064581     -0.36168410044583
  H   2.50192579587404      2.30152284957644     -0.04318637826779
  H   0.02941506160917      2.42537740628246     -0.27435480377423
  H   2.21083929427683     -1.98911202565113      0.14990716543588
  H   -2.04071566398883     -1.59568460404512     -0.42181387713538
