18
Coordinates from ORCA-job sd_inp/doublemontecarlogen3D384
  O   2.88024921759058      0.83899214808883     -0.47728248906445
  C   2.59467365384346     -0.14613006679275      0.40727599932675
  O   1.94896888423240      0.05654007624016      1.41577851625259
  C   3.14772095717037     -1.46933127630460      0.00451643874535
  C   3.88118959159819     -1.61611833421776     -1.18122453437514
  C   4.38509111869040     -2.86259576122377     -1.54805835909565
  C   4.15925082598836     -3.97572982809268     -0.73869286334736
  C   3.43227490220493     -3.81223110706177      0.43447914320532
  F   3.20806627035915     -4.88787412118047      1.21469444948538
  C   2.91866775994447     -2.58179337511055      0.83603377995122
  C   2.21049956469478     -2.51375373687016      2.16746840585492
  O   0.88257976358679     -2.69337194195793      2.03730899669645
  O   2.78071815175710     -2.39198038592989      3.22475824830349
  H   2.47633466628362      1.64503794068197     -0.11533124753156
  H   4.04996178390363     -0.74802146520357     -1.80664152858835
  H   4.95359681490145     -2.97042546748424     -2.46640568653027
  H   4.53291425364158     -4.96114050938112     -0.99578532072443
  H   0.51096181960870     -2.62898278819967      2.93419805143575
