25
Coordinates from ORCA-job test_1_sl_inp/doublemontecarlogen3D238
  B   1.15917827839530     -2.11106436967376     -1.26058970596895
  F   0.34831195247679     -2.90622847207602     -2.03311224276872
  F   0.97484977182572     -2.38222858392496      0.12844956504853
  F   0.88482768289207     -0.73185864084810     -1.46816458016760
  F   2.53312313031248     -2.32955668353204     -1.56232211552196
  C   1.10548403780618      1.24498749481902      0.78551922337880
  C   2.55224013828753      0.94828482509177      0.58272181429764
  C   3.00639048336920     -0.37679975941039      0.62507363465520
  C   4.32058555532890     -0.66214531649340      0.33180193368162
  O   5.18053907361073      0.33829020750220      0.04548595322466
  C   4.79613563595541      1.62867902916531      0.01256155148631
  C   3.49319286181984      1.95877549555239      0.27972444769628
  C   5.90754773653686      2.55812517360035     -0.34276646894697
  C   4.90401198551718     -2.02423209764324      0.23686792560718
  H   0.74223058792169      0.78376566135347      1.70987558469565
  H   0.57218409952976      0.74983483278879     -0.03911671026014
  H   0.89258484137869      2.31579674272271      0.79915862338997
  H   2.31229215420707     -1.20109764133161      0.78449176048818
  H   3.19497470543791      3.00017933508147      0.23315869608585
  H   6.30405306636822      2.31348190700285     -1.33420799519969
  H   6.73084676608898      2.46613005709289      0.37370547991328
  H   5.55481883462061      3.59048795757149     -0.34828370602862
  H   4.84228937565476     -2.53388378950598      1.20453378233413
  H   5.94349522475820     -1.98886692386154     -0.09194101352876
  H   4.28044201989972     -2.58179644104366     -0.47395543759188
