15
Coordinates from ORCA-job leia_inp/doublemontecarlogen3D221
  C   -2.05918499966222     -0.80572382806734     -0.09702839008854
  C   -2.10676627656558      0.58579122280098     -0.13454642079008
  C   -0.92994299624287      1.35287351821005     -0.06599853458987
  C   0.29488599771810      0.68607080844713      0.03848265937030
  C   0.33287976847717     -0.70870339705283      0.09325966013382
  C   -0.83148630545114     -1.46104734371962      0.02349567701039
  F   1.52408179002942     -1.31218781016318      0.21762681962749
  F   1.44744818601752      1.35387524154012      0.12210632118403
  C   -0.96662751215075      2.85210257636226     -0.16508041645779
  O   -0.14927030867982      3.51377029342860     -0.75182578689563
  O   -2.03274857183096      3.44493486580320      0.44119538787421
  H   -2.97427838324568     -1.38447162085444     -0.16734057487706
  H   -3.06165318779810      1.08800674191340     -0.26085415181577
  H   -0.75813415679924     -2.54269533496401      0.06283252461162
  H   -2.50017304381582      2.80152406631568      0.99303522570288
