16
Coordinates from ORCA-job sli_prashanth_inp/doublemontecarlogen3D562
  C   0.04084209385663     -1.14998658819761     -0.05178993454684
  C   -1.34793791395872     -1.11642778891287     -0.11397089193305
  C   -2.01615896118744      0.10887304351234     -0.09868592272393
  C   -1.32050526026335      1.32984231443470      0.00772615208528
  C   0.07633060285364      1.27963630060388      0.07325075798533
  C   0.73201796707132      0.05674102152742      0.03353540699750
  F   2.07132992086490      0.03371089291716      0.08813676799752
  C   -1.93723777174040      2.69870968153334      0.14648425382709
  O   -1.25902152394394      3.70386400501225      0.07499718547262
  N   -3.48032658748666      0.05722838105097     -0.24333913827054
  O   -4.04403633483046     -0.99170174808507      0.06245906396179
  O   -4.05052743741762      1.05785792936857     -0.68237843305873
  H   0.58713790066605     -2.08638422193772     -0.07365387733918
  H   -1.92870768855082     -2.02760947275381     -0.18580621541308
  H   0.63039018085282      2.20742135020099      0.16359802198349
  H   -3.01670918678595      2.74186489972545      0.34710680297471
