28
Coordinates from ORCA-job sli_prashanth_inp/doublemontecarlogen3D5
  C   -0.84029152695734      0.95809357548318     -2.05515396516222
  C   -0.34199744102946     -0.15812934454356     -1.46331148838688
  C   -0.86592755783833     -2.18818088651236      1.07864529498267
  C   -0.37187328601407      0.03110880968816      1.79253961570271
  C   -2.81607065519849     -0.33780630169565      1.20852499588190
  C   -1.55860831494817     -0.25576018566051     -2.06342222908412
  C   -6.06535566861207      1.43836267046063      1.97201037642118
  C   -5.74201215902686      0.78185623731806      0.76683407526984
  C   -6.04228892381642      1.61924559464313     -0.51289141878441
  C   -5.51308979436490      1.02555095574760     -1.81662199167168
  O   -4.70513819039582      1.58005832904707     -2.52132835134107
  O   -5.95478789151808     -0.21237513241868     -2.12409885386079
  N   -4.06784077481913      0.40520559132749      0.65275261645773
  F   0.68615627140435     -1.15333268238649      0.88534783265800
  Cl  2.35012362606870      0.96624784639522      0.34499638100198
  H   -0.92525576865626      2.04247599663762     -1.92092993223015
  H   0.58073232984493     -0.15138099927966     -0.90461815301199
  H   -1.06007737007482     -1.10376131494382      1.19895613391837
  H   -1.90768916658558     -2.09061154256077      0.67522280001509
  H   -5.67608873928054      2.42324788864251      2.23810418342565
  H   -6.57435508179183      0.95178521069711      2.80295488915757
  H   -6.23489543874279     -0.19117583963908      0.69377220354113
  H   -5.63051152868397      2.62161302924263     -0.40910053508983
  H   -7.13199198732939      1.69756567290278     -0.54248005999706
  H   -6.67489637416054     -0.52348713755622     -1.55777345309529
  H   -3.52787576667799      1.26363796432650      0.67168534650013
  H   -3.91439127764562     -0.03502652799119     -0.24630548821477
  H   1.73542845685085     -0.10372747737173      0.76878917499630
