20
Coordinates from ORCA-job test_4_sl_inp/doublemontecarlogen3D293
  C   -1.47547446547524     -0.17371415616402     -0.75008642003178
  C   -0.91311685946271      1.09915831342671     -0.67954262386055
  C   0.45077139612029      1.27083913744239     -0.42665191649019
  C   1.27259830096140      0.13620885056158     -0.25515889518734
  C   0.70071104422227     -1.13898318513589     -0.30204542957883
  C   -0.66253313258079     -1.29126220213586     -0.55109792950382
  C   -1.24239539213777     -2.67731668829848     -0.66652002581938
  F   -1.12272435897301     -3.15897307942012     -1.92609488153821
  F   -0.61498833109877     -3.55319959088706      0.14874349560124
  F   -2.55642859227744     -2.69957693651237     -0.35895932511830
  N   2.64944289618363      0.29273226600155      0.03224726228593
  S   1.14037108555766      2.92954823494423     -0.41170228121249
  Cl  3.02435729228953      1.27413257010644      2.95397363395813
  H   -2.53672227428745     -0.29589268911686     -0.93357717164124
  H   -1.53620712465885      1.97820218558069     -0.80730319692963
  H   1.32307747721923     -2.01480174486606     -0.14376683724892
  H   3.04314892802962      1.10693915131990     -0.43772472553885
  H   3.19597176825278     -0.53700059624464     -0.17536400727519
  H   1.61553394984464      2.90425226936721      0.85516884436427
  H   2.89707639227095      0.75268789003066      1.72749243076516
