25
Coordinates from ORCA-job sli_testing_inp/doublemontecarlogen3D81
  C   -2.06183461577628     -3.04711567968378      2.87837387430195
  C   -2.99626418033027     -2.42928520222119      2.05117079778216
  C   -2.70022852309420     -1.15334916691592      1.57196934302221
  N   -1.59156814501107     -0.48165164619476      1.86914178559476
  C   -0.70361473079023     -1.06196026055148      2.67706696141812
  C   -0.89838190260349     -2.34716471354593      3.19476442257138
  Cl  0.31016180835899     -3.05503319099694      4.23471080095790
  N   -3.64758014566233     -0.47389744935346      0.71508217652146
  S   -3.57804960788694     -0.79301917779695     -0.98729775670131
  O   -3.78700067934158      0.43077125181636     -1.73895721515345
  O   -2.44128982738386     -1.67796089339876     -1.18875220192591
  C   -5.12267236710905     -1.83882593000890     -1.21563248106285
  F   -5.17843965384068     -2.18890942939812     -2.49750464625194
  F   -5.03015159503723     -2.93652258952171     -0.45622322632500
  F   -6.20509584849821     -1.15365295880043     -0.88068031098018
  S   -4.42248520987980      0.93883852820604      1.36077930789826
  O   -5.55351814790030      1.25164811447333      0.50659070188262
  O   -4.54048704891225      0.69619325281168      2.78994955819361
  C   -3.14246612552584      2.32881424495985      1.12907887592728
  F   -2.43952974918255      2.46257098588943      2.24503948294243
  F   -2.34008901179563      2.06159698387516      0.10782452071510
  F   -3.82975621946035      3.44211288961838      0.88972724412384
  H   -2.23488761112629     -4.04077448560150      3.27687538746810
  H   -3.92410912913176     -2.91791243228339      1.78142026462017
  H   0.19192826692134     -0.49735104537697      2.92153233245925
