23
Coordinates from ORCA-job sd_inp/doublemontecarlogen3D376
  C   1.35717301283262     -0.03046222415179     -0.35769418147235
  C   0.54041106476170     -1.16307039915744     -0.41204533859659
  C   -0.84276818773339     -1.00574388899860     -0.26308941402183
  C   -1.39589127900259      0.25748783369836     -0.05327783836712
  C   -0.57791768614189      1.38825383431723     -0.00154679609144
  C   0.79826866789641      1.23531252018112     -0.15694861499934
  C   1.69071173649862      2.44958065079738     -0.17038827642893
  F   1.93705895760381      2.86732826975404     -1.43421340098164
  F   1.13561984899114      3.49083262086155      0.48815600925192
  F   2.88840378421904      2.19654876848131      0.39969123559417
  C   -2.87736920328133      0.41978525218517      0.16495863453573
  F   -3.36016052138149      1.49976390076052     -0.48917880095590
  F   -3.57529861624532     -0.65802024910118     -0.25483683499935
  F   -3.16769485922985      0.59556804929507      1.47477873783434
  C   1.13636976949173     -2.54866095092785     -0.59727685980235
  N   2.41101262027266     -2.50499904328408     -1.31367229631248
  H   2.42822835415808     -0.15211249915598     -0.47698060854365
  H   -1.49656038762090     -1.87099102130147     -0.31640007539799
  H   -1.00712398697357      2.37144058039656      0.15291657481448
  H   0.37218809863108     -3.19732167582018     -1.05974755955069
  H   1.33407549615761     -2.97724823170149      0.39495772042278
  H   2.25789044045105     -2.28912588123043     -2.29579249462304
  H   2.86704287564479     -3.41178621589781     -1.27564952130872
