19
Coordinates from ORCA-job test_3_sl_inp/doublemontecarlogen3D288
  C   1.36670012981433     -0.98023865461698      0.97806984296493
  C   0.65214932876682     -2.14595230420555      0.69481224533984
  C   -0.56166698209423     -2.03692029028575      0.01241400816015
  C   -1.06485319569842     -0.79657060195835     -0.38386045420548
  C   -0.34277195595879      0.37018472187738     -0.09715079270173
  C   0.87914498489572      0.26459351067069      0.59307024984162
  N   -0.77744512839627      1.62938844686474     -0.52479131006201
  N   -2.13527037313821      1.76831759469563     -0.86912398423872
  C   -1.38612111533141     -3.26694456777437     -0.26018984702739
  F   -1.99455843085373     -3.21182512641060     -1.46723352097494
  F   -0.64241655809018     -4.39646007021580     -0.23597004237173
  F   -2.36865111784400     -3.42509006905109      0.66084146161818
  H   2.31368315805387     -1.04179333739979      1.50688927919923
  H   1.02934319450301     -3.11784280662670      0.99037712572101
  H   -2.00401794731737     -0.71781498818104     -0.91649852394253
  H   1.44717384736255      1.16486613712834      0.81846828128929
  H   -0.36486541765699      2.40068449193902     -0.00923278491337
  H   -2.21418371444091      2.41159838799769     -1.64976063836149
  H   -2.69058270657579      2.11899952555254     -0.08919059533486
