18
Coordinates from ORCA-job ewa_inp/doublemontecarlogen3D139
  C   -1.15056479204789     -1.52636126037631      0.14737955791314
  C   0.21374640852890     -1.23388190365543     -0.01823403092857
  C   0.55948697540030      0.12509902962605     -0.14249341569654
  C   -0.39437653500434      1.14285327416529     -0.09236544285031
  C   -1.72939000593863      0.81173878990191      0.08280783223144
  C   -2.11374154497197     -0.52817536259235      0.19809507571873
  S   -3.83850685598439     -0.99598171837615      0.34681470545795
  O   -4.64358139604459     -0.17700607260771     -0.54565426013256
  O   -3.91001475127989     -2.44968508069616      0.35556320578808
  Cl  -4.26016397513332     -0.34893624880290      2.31944040887621
  F   -2.63262306549317      1.78585832866961      0.15211637995180
  Cl  2.21792768014680      0.67141632933754     -0.38286158859856
  C   1.10505308741385     -2.46873760562977     -0.04443902888100
  O   0.61045827151332     -3.57164030642449     -0.05648087735998
  O   2.43893633103282     -2.32681366034541     -0.03383777075852
  H   -1.43658988134761     -2.56930258471441      0.22995993613368
  H   -0.11177851471531      2.18434998625925     -0.18767167960163
  H   2.71225256392515     -1.39553393373854     -0.02564900726336
