15
Coordinates from ORCA-job leia_inp/doublemontecarlogen3D186
  C   -2.01733741011483      0.08964195614671     -0.15914247511501
  C   -1.29522161211659      1.28120020128321     -0.04027343718292
  C   0.08546496504644      1.24663470723531      0.15560132517425
  C   0.71361840203255      0.01186598747511      0.22763542365617
  C   0.03182320224832     -1.20297477554263      0.11179746784093
  C   -1.35710671565291     -1.13286172463127     -0.08407248403888
  C   0.65111173640080     -2.57656294608841      0.17657199806403
  O   -0.01698343732020     -3.57900194910301      0.06352806428010
  O   1.98384718052750     -2.65939128133319      0.36544629559456
  F   2.06901807371000      0.01310464698610      0.42314830570441
  H   -3.09185778801902      0.11596546221635     -0.31018280202558
  H   -1.80288492637558      2.23931434236403     -0.09925495435705
  H   0.67773720516150      2.15001866590538      0.25246335163653
  H   -1.89014138051275     -2.07335044535090     -0.17373705421073
  H   2.37398250498479     -1.77388284756279      0.43678097497919
