20
Coordinates from ORCA-job sli_testing_inp/doublemontecarlogen3D71
  C   1.80486922506237     -0.24120612291398      0.50525206318439
  C   1.22804750967905     -1.31822640194538     -0.16120290174151
  C   -0.11099729120969     -1.25643737534939     -0.54848042721957
  C   -0.87672947978216     -0.12399711420158     -0.26826963796456
  C   -0.30347228784330      0.97007201547661      0.41102267668747
  C   1.04126677725778      0.89197482500716      0.78636568589445
  C   -1.05989942217384      2.22139748878961      0.81463245096082
  F   -1.81854655630880      2.02412667143620      1.90276674681660
  F   -0.20714772956827      3.23068128719160      1.10277493729664
  F   -1.86779125563578      2.68201964177620     -0.17436261680112
  S   -2.60920910599099     -0.22551943992096     -0.79878757024492
  O   -2.81655104338376     -1.57167559280454     -1.34130729943519
  O   -3.44618003112891      0.28994942171021      0.28413453871518
  N   -2.64960159086109      0.79632937431533     -2.14150583726387
  H   2.84609336464941     -0.27569391121421      0.81085342130964
  H   1.81111115445878     -2.20721090907730     -0.38160031151917
  H   -0.58222914407485     -2.08553204723383     -1.06338110148304
  H   1.48921368569515      1.73239266441832      1.30266845958611
  H   -3.22715052276576      0.35993101646194     -2.85551677759016
  H   -2.97683625607536      1.72367450807799     -1.88745649918817
