15
Coordinates from ORCA-job sli_prashanth_inp/doublemontecarlogen3D552
  C   0.29606095835647     -1.27718100204058     -0.00282604315747
  C   -1.08702767884322     -1.27127505567084      0.16494624244192
  C   -1.75222151803962     -0.05486695778936      0.21984574392283
  C   -1.09759557761178      1.17496979115133      0.11309169851521
  C   0.29502769913315      1.14942653174158     -0.05516817547905
  C   0.97655708154784     -0.06084455271877     -0.11097139780950
  Cl  2.71711345387805     -0.06584094861015     -0.32048461637284
  C   -1.75059471300170      2.53652500871073      0.16076130808544
  O   -1.10119433968052      3.55086622961431      0.05504570404644
  O   -3.08648349206716      2.58719926086438      0.32590378406878
  F   -3.10823678013835     -0.09033145077044      0.38731460795005
  H   0.83988505674963     -2.21408625182012     -0.04904966906937
  H   -1.65170965337916     -2.19288126563489      0.25309103289086
  H   0.81221324965358      2.09826729229303     -0.13870609261110
  H   -3.45969374655721      1.69419337067979      0.39370587257779
