14
Coordinates from ORCA-job sli_prashanth_inp/doublemontecarlogen3D499
  C   -1.24665385413120      1.22256290698368      0.12199994900671
  C   0.14463376348611      1.21563898523823      0.12025691083420
  C   0.80894814942696     -0.00208927083844     -0.00078819187950
  C   0.12885045225652     -1.21282518809242     -0.12107772095027
  C   -1.25973876008520     -1.19593761599593     -0.11974141576269
  C   -1.96011567121116      0.01987413493884      0.00228986526081
  C   -3.43684230113066     -0.07197913675951     -0.00721462465500
  O   -4.07992768096670     -1.07242589924293     -0.12105994845694
  Cl  -4.32021890023644      1.52418342424726      0.17878286399009
  F   2.15141888047533     -0.01065302987698     -0.00170219743030
  H   -1.78117695548108      2.15999320982070      0.21554741240490
  H   0.71752626361885      2.13186657137469      0.21067318538908
  H   0.68923246532497     -2.13680714359466     -0.21261608223034
  H   -1.82319585134629     -2.11790194820253     -0.21180000552075
