19
Coordinates from ORCA-job sli_prashanth_inp/doublemontecarlogen3D529
  B   0.86955996265656     -0.03869863124478      0.16836171322626
  C   0.06653844965378      0.11755997727463      1.50455720896168
  C   0.45296671245593      1.05634032692002      2.47534957226072
  C   -0.25472357943664      1.19813823705784      3.66915143430014
  C   -1.36849344856265      0.39155783706814      3.91006502271865
  C   -1.77424137381009     -0.55099930463130      2.95763593035157
  C   -1.06153647454845     -0.68109186702446      1.76965081110704
  C   -2.15756672373184      0.51323654150803      5.18604403703210
  F   -3.43630092094178      0.88996789098052      4.94667221840866
  F   -2.22257274677431     -0.67067010446617      5.84056175012968
  F   -1.62899375505514      1.41635583696880      6.04012605781628
  O   1.98317842170737      0.74393387693446     -0.00611650415578
  O   0.41393807426116     -0.95014925638575     -0.75088724243175
  H   1.32082708301551      1.68253019458829      2.29064613422657
  H   0.05369825467595      1.92592349384352      4.41171535921694
  H   -2.64011179996267     -1.17702593485318      3.15176010078955
  H   -1.37700844868506     -1.41301592451075      1.03195364466104
  H   2.44717419468025      0.62355548340709     -0.84221910260248
  H   0.93646811840214     -1.02068867343494     -1.55766814601691
