17
Coordinates from ORCA-job ewa_inp/doublemontecarlogen3D156
  C   -2.25662239168963     -0.59762821259566     -1.06399427304269
  C   -1.70331012469092      0.66184676974719     -1.26697504771843
  C   -0.60690369389367      1.11379500018991     -0.51582404799129
  C   -0.09335866177752      0.24248752920074      0.45168618427828
  C   -0.61153423093387     -1.02003266411582      0.68894428233845
  C   -1.69640642890794     -1.41724033678794     -0.08592066053234
  N   -2.26684005878412     -2.76052220675264      0.14640084782201
  O   -1.75478093384021     -3.44616608804452      1.02863591749372
  O   -3.21395983424426     -3.09949630914404     -0.55836442653820
  F   0.96933617848729      0.62702257184938      1.21429293678412
  C   -0.08447300154397      2.49941713560637     -0.82933544638945
  O   -0.59491062263239      3.17752642290529     -1.68979515482209
  O   0.96682516305235      2.95295336881265     -0.12319178013691
  H   -3.10157489841416     -0.95105296181721     -1.64090562529345
  H   -2.10291066114377      1.33634323812857     -2.01615914770086
  H   -0.19021350905610     -1.67000993372942      1.44475014006066
  H   1.25982771001288      2.29522667654716      0.52689530138847
