15
Coordinates from ORCA-job sli_prashanth_inp/doublemontecarlogen3D493
  C   -1.20898933676904      1.26611604353462     -0.16308921143725
  C   0.18127077660235      1.25514302740181     -0.06701506424903
  C   0.82925565752697      0.03053796854988      0.06072521564059
  C   0.13512459363508     -1.17705477045820      0.08164419037417
  C   -1.25119444182313     -1.15019709688672     -0.02429671564901
  C   -1.93932865594885      0.06825114296441     -0.13172334529377
  C   -3.43247640116587      0.00987711277836     -0.24690927138652
  O   -4.03313539067269     -0.98828482191983     -0.56955388945487
  O   -4.11736876433466      1.15216219661549      0.03344739543737
  F   2.17046097085259      0.01329583492639      0.15899507742923
  H   -1.70939971372978      2.22141838299851     -0.30259436403342
  H   0.76375434706300      2.16939724451301     -0.09902009048778
  H   0.68337652250789     -2.10828902657810      0.17541288063990
  H   -1.82790501045268     -2.06880325285030     -0.02588896800759
  H   -3.53192515329116      1.80396001441066      0.44291616047799
