17
Coordinates from ORCA-job test_5_sl_inp/doublemontecarlogen3D321
  C   -1.38619381494794      0.70351336164538      0.38879485797137
  C   -0.61723770801205      1.81242200030665      0.06558337734552
  C   0.74998960911258      1.67320715419949     -0.19254739133441
  C   1.34677362942240      0.40759347804380     -0.11608591242872
  C   0.57971511308307     -0.70266484363502      0.22859595723041
  C   -0.78671524396237     -0.56032514522287      0.48827142405329
  C   -1.66884205899771     -1.72980303518529      0.83810925727909
  O   -2.86000736213633     -1.72295248735551      0.64535151468738
  O   -1.06364084911370     -2.81216836511848      1.38627558863652
  F   2.64415356544174      0.21504521975874     -0.34824602172888
  N   1.51515419743789      2.88018447001820     -0.54696918727951
  O   2.63610846038900      2.73129987879073     -1.02292777939721
  O   0.96552358050445      3.96281329366284     -0.34669606097141
  H   -2.45102948142952      0.79383367620902      0.56951955672735
  H   -1.04667987160537      2.80481863715784      0.00292920679646
  H   1.08231929171486     -1.66499547510553      0.24455213359496
  H   -0.15074105690102     -2.60938181816999      1.63433947881780
