18
Coordinates from ORCA-job sd_inp/doublemontecarlogen3D422
  C   -1.39407063323430     -0.05671802374084     -0.02977365410998
  C   -0.78024887496497      1.18086502278272     -0.14660820465022
  C   0.62001925534761      1.29892795694531     -0.19321129984946
  C   1.39527841810213      0.12035960233347     -0.11558351039969
  C   0.78181509394262     -1.11781758441289      0.00101750651896
  C   -0.62259376145729     -1.23202786458880      0.04611821933657
  N   -1.21845149392868     -2.46481382694346      0.20944319327816
  C   2.90508468602384      0.19831820638867     -0.16308827701280
  F   3.33429431864255      0.73431143869557     -1.32377881086855
  F   3.38877170812150      0.96130106824678      0.83733562236255
  F   3.47487538856175     -1.02260164399333     -0.05006756125180
  C   1.20263749840929      2.59991626507924     -0.31888537147788
  N   1.62633051188265      3.67857079244922     -0.42590243360727
  H   -2.47814665292338     -0.12105226205658      0.00737431277444
  H   -1.38433025681528      2.08023052585713     -0.20560940659504
  H   1.39641086441423     -2.00904209811144      0.06247332326752
  H   -0.66842033666267     -3.28318379493909     -0.00402660638990
  H   -2.19569573346160     -2.54784377999165     -0.02680704132561
