29
Coordinates from ORCA-job sli_prashanth_inp/doublemontecarlogen3D56
  C   2.46954629545405      5.44730987493770     -0.64692908841632
  C   3.45759629319912      4.31038992300541     -0.40024753503407
  C   3.11701264504755      3.54020541549125      0.90409806543013
  O   2.13179393955345      3.79370120308173      1.55691538806803
  O   3.97202147835980      2.57326922327453      1.26657816424033
  N   3.49535762690284      3.41029461360949     -1.57372926986265
  S   4.88937258475430      2.60451916524636     -2.02302787150257
  O   5.77311021356245      2.49098972919609     -0.84037398946724
  O   4.45027840283885      1.42471507793206     -2.76609911514709
  C   5.71294545281888      3.73459531034339     -3.14602646033984
  C   6.87299395540993      4.39413923651389     -2.73944036067338
  C   7.50636320673464      5.25871899710818     -3.63588874346626
  C   6.98325090726293      5.45200381844164     -4.91288738987604
  C   5.82160047758263      4.77558368501690     -5.30496143767009
  C   5.17934780353513      3.90800364851111     -4.42423328093002
  C   5.23398599049528      5.02008435033127     -6.67274220530302
  F   4.41419201836498      6.09489252783905     -6.66843345739781
  F   6.19588101992287      5.25725111021886     -7.58932842886438
  F   4.50682925635995      3.96673810465701     -7.09758491461356
  H   2.46312054703484      6.12839417233090      0.20691104431784
  H   1.45362732119749      5.05986973006484     -0.76031159717953
  H   2.74820120190948      5.99647710806530     -1.54966870527911
  H   4.46943368267239      4.71799938344308     -0.29096326608432
  H   4.71926411147233      2.48725621180230      0.63561036736695
  H   2.68374334357048      2.81639624848684     -1.72216974725358
  H   7.27390587808399      4.21487582980872     -1.74818903047339
  H   8.41406268357247      5.77374408407461     -3.33769063313020
  H   7.47882515194428      6.11575042481302     -5.61348162974242
  H   4.29363651038244      3.36490179235429     -4.73348487171628
